&CONTROL
 calculation = 'scf',
 prefix = 'cu1zn0',
 etot_conv_thr = 0.0001,
 forc_conv_thr = 0.001,
 pseudo_dir = '../'
 /
&SYSTEM
 ibrav = 2, ! fcc
 celldm(1) = 6.8720766,
 nat = 1,
 ntyp = 1,
 ecutwfc = 80,
 ecutrho = 640,
 occupations = 'smearing',
 degauss = 0.01,
 smearing = 'gauss',
 /
&ELECTRONS
 electron_maxstep = 100,
 conv_thr = 1e-5,
 mixing_beta = 0.7,
 /
ATOMIC_SPECIES
Cu 63.546 Cu.pbe-dn-kjpaw_psl.1.0.0.UPF
ATOMIC_POSITIONS angstrom
Cu   0.000000   0.000000   0.000000 1 1 1
K_POINTS automatic
12 12 12 0 0 0

