CO                                      
   1.0000000000000000     
    15.0000000000000000    0.0000000000000000    0.0000000000000000
     0.0000000000000000   15.0000000000000000    0.0000000000000000
     0.0000000000000000    0.0000000000000000   15.0000000000000000
   C    O 
     1     1
Selective dynamics
Direct
  0.3332142218724671  0.3333333333333357  0.3333333333333357   T   T   T
  0.4094524447942048  0.3333333333333357  0.3333333333333357   T   T   T

  0.00000000E+00  0.00000000E+00  0.00000000E+00
  0.00000000E+00  0.00000000E+00  0.00000000E+00
