Pt                                      
   1.0000000000000000     
     3.9588642286228835    0.0000000000000000    0.0000000000000000
     0.0000000000000000    3.9588642286228835    0.0000000000000000
     0.0000000000000000    0.0000000000000000    3.9588642286228835
   Pt
     4
Selective dynamics
Direct
  0.0000000000000000  0.0000000000000000  0.0000000000000000   T   T   T
  0.5000000000000000  0.5000000000000000  0.0000000000000000   T   T   T
  0.5000000000000000  0.0000000000000000  0.5000000000000000   T   T   T
  0.0000000000000000  0.5000000000000000  0.5000000000000000   T   T   T

  0.00000000E+00  0.00000000E+00  0.00000000E+00
  0.00000000E+00  0.00000000E+00  0.00000000E+00
  0.00000000E+00  0.00000000E+00  0.00000000E+00
  0.00000000E+00  0.00000000E+00  0.00000000E+00
