Pt  O  C  H                             
   1.00000000000000     
    11.2143999999999995    0.0000000000000000    0.0000000000000000
     5.6072000000000006    9.7119552882002083    0.0000000000000000
     0.0000000000000000    0.0000000000000000   31.4455999999999989
   Pt   O    C    H 
    64     1     1     1
Selective dynamics
Direct
  0.0833299999999966  0.3333299999999966  0.3908100000000019   F   F   F
  0.0833299999999966  0.0833299999999966  0.3908100000000019   F   F   F
  0.3333299999999966  0.3333299999999966  0.3908100000000019   F   F   F
  0.3333299999999966  0.0833299999999966  0.3908100000000019   F   F   F
  0.4166700000000034  0.1666700000000034  0.4635999999999996   F   F   F
  0.4166700000000034  0.4166700000000034  0.4635999999999996   F   F   F
  0.1666700000000034  0.1666700000000034  0.4635999999999996   F   F   F
  0.1666700000000034  0.4166700000000034  0.4635999999999996   F   F   F
  0.2499202113501068  0.0007378820869832  0.5355821328093443   T   T   T
  0.2507179940481525  0.2507814897080460  0.5354125795868100   T   T   T
  0.4999782341828378  0.0018363895271868  0.5355795718171934   T   T   T
  0.5014615971770289  0.2529238255470656  0.5373945368092221   T   T   T
  0.0834891321585343  0.3351352258661937  0.6087719098759010   T   T   T
  0.0828434189111756  0.0859785219296807  0.6087694948491900   T   T   T
  0.3321348088028750  0.3356005821423009  0.6088071178788039   T   T   T
  0.3334332225730705  0.0857956355164464  0.6087383987390181   T   T   T
  0.0833299999999966  0.8333300000000037  0.3908100000000019   F   F   F
  0.0833299999999966  0.5833299999999966  0.3908100000000019   F   F   F
  0.3333299999999966  0.8333300000000037  0.3908100000000019   F   F   F
  0.3333300000000037  0.5833299999999966  0.3908100000000019   F   F   F
  0.4166700000000034  0.6666700000000034  0.4635999999999996   F   F   F
  0.4166700000000034  0.9166700000000034  0.4635999999999996   F   F   F
  0.1666700000000034  0.6666700000000034  0.4635999999999996   F   F   F
  0.1666700000000034  0.9166700000000034  0.4635999999999996   F   F   F
  0.2497886211949700  0.5008708291398002  0.5356788771412107   T   T   T
  0.2503220372862655  0.7502934971186596  0.5353641212036319   T   T   T
  0.5013297456811673  0.4983024266757127  0.5374351602521956   T   T   T
  0.4999335132158902  0.7500997016879561  0.5354855529104413   T   T   T
  0.0832260474658672  0.8360882209004438  0.6087827260403799   T   T   T
  0.0827107638486360  0.5857959796947751  0.6087655087646198   T   T   T
  0.3329761861034954  0.8360091104598462  0.6087475969572819   T   T   T
  0.3312032083414009  0.5875103163829453  0.6086919535681324   T   T   T
  0.5833300000000037  0.3333299999999966  0.3908100000000019   F   F   F
  0.5833299999999966  0.0833299999999966  0.3908100000000019   F   F   F
  0.8333299999999966  0.3333299999999966  0.3908100000000019   F   F   F
  0.8333299999999966  0.0833299999999966  0.3908100000000019   F   F   F
  0.9166700000000034  0.1666700000000034  0.4635999999999996   F   F   F
  0.9166699999999963  0.4166700000000034  0.4635999999999996   F   F   F
  0.6666700000000034  0.1666700000000034  0.4635999999999996   F   F   F
  0.6666700000000034  0.4166700000000034  0.4635999999999996   F   F   F
  0.7495814501421226  0.0012857361394899  0.5357823104060835   T   T   T
  0.7466637307617887  0.2528813412673474  0.5373312576753726   T   T   T
  0.9988506377644580  0.0017560774631268  0.5355385195732444   T   T   T
  0.9994338199886287  0.2505511257195276  0.5353562129072591   T   T   T
  0.5818789703141788  0.3376988127588217  0.6186371414682386   T   T   T
  0.5832885993251073  0.0852511023983512  0.6090736213699749   T   T   T
  0.8345769557814188  0.3357506217202126  0.6087489065751639   T   T   T
  0.8338276426131597  0.0851649689774730  0.6089432983769999   T   T   T
  0.5833299999999966  0.8333300000000037  0.3908100000000019   F   F   F
  0.5833300000000037  0.5833299999999966  0.3908100000000019   F   F   F
  0.8333299999999966  0.8333300000000037  0.3908100000000019   F   F   F
  0.8333299999999966  0.5833299999999966  0.3908100000000019   F   F   F
  0.9166699999999963  0.6666700000000034  0.4635999999999996   F   F   F
  0.9166700000000034  0.9166700000000034  0.4635999999999996   F   F   F
  0.6666699999999963  0.6666700000000034  0.4635999999999996   F   F   F
  0.6666700000000034  0.9166700000000034  0.4635999999999996   F   F   F
  0.7498838662022641  0.5008699230614158  0.5357690669372459   T   T   T
  0.7495826210829167  0.7510470385816875  0.5357528463394634   T   T   T
 -0.0000207834694215  0.5004465800499379  0.5356990599929052   T   T   T
 -0.0003194971264533  0.7511919171369436  0.5357532272992371   T   T   T
  0.5827182760744923  0.8360175282342761  0.6088055536291725   T   T   T
  0.5830864845721480  0.5874466316084049  0.6090192618477474   T   T   T
  0.8329683889359245  0.8359261006893088  0.6088836461576907   T   T   T
  0.8333573406925354  0.5859063041275840  0.6088581370522042   T   T   T
  0.4791315369069662  0.3844601018983832  0.7040356710659713   T   T   T
  0.5780590499441636  0.3496773383331370  0.6816264249778057   T   T   T
  0.6820466559180450  0.3203814901565347  0.6944347073042528   T   T   T
 
  0.00000000E+00  0.00000000E+00  0.00000000E+00
  0.00000000E+00  0.00000000E+00  0.00000000E+00
  0.00000000E+00  0.00000000E+00  0.00000000E+00
  0.00000000E+00  0.00000000E+00  0.00000000E+00
  0.00000000E+00  0.00000000E+00  0.00000000E+00
  0.00000000E+00  0.00000000E+00  0.00000000E+00
  0.00000000E+00  0.00000000E+00  0.00000000E+00
  0.00000000E+00  0.00000000E+00  0.00000000E+00
  0.00000000E+00  0.00000000E+00  0.00000000E+00
  0.00000000E+00  0.00000000E+00  0.00000000E+00
  0.00000000E+00  0.00000000E+00  0.00000000E+00
  0.00000000E+00  0.00000000E+00  0.00000000E+00
  0.00000000E+00  0.00000000E+00  0.00000000E+00
  0.00000000E+00  0.00000000E+00  0.00000000E+00
  0.00000000E+00  0.00000000E+00  0.00000000E+00
  0.00000000E+00  0.00000000E+00  0.00000000E+00
  0.00000000E+00  0.00000000E+00  0.00000000E+00
  0.00000000E+00  0.00000000E+00  0.00000000E+00
  0.00000000E+00  0.00000000E+00  0.00000000E+00
  0.00000000E+00  0.00000000E+00  0.00000000E+00
  0.00000000E+00  0.00000000E+00  0.00000000E+00
  0.00000000E+00  0.00000000E+00  0.00000000E+00
  0.00000000E+00  0.00000000E+00  0.00000000E+00
  0.00000000E+00  0.00000000E+00  0.00000000E+00
  0.00000000E+00  0.00000000E+00  0.00000000E+00
  0.00000000E+00  0.00000000E+00  0.00000000E+00
  0.00000000E+00  0.00000000E+00  0.00000000E+00
  0.00000000E+00  0.00000000E+00  0.00000000E+00
  0.00000000E+00  0.00000000E+00  0.00000000E+00
  0.00000000E+00  0.00000000E+00  0.00000000E+00
  0.00000000E+00  0.00000000E+00  0.00000000E+00
  0.00000000E+00  0.00000000E+00  0.00000000E+00
  0.00000000E+00  0.00000000E+00  0.00000000E+00
  0.00000000E+00  0.00000000E+00  0.00000000E+00
  0.00000000E+00  0.00000000E+00  0.00000000E+00
  0.00000000E+00  0.00000000E+00  0.00000000E+00
  0.00000000E+00  0.00000000E+00  0.00000000E+00
  0.00000000E+00  0.00000000E+00  0.00000000E+00
  0.00000000E+00  0.00000000E+00  0.00000000E+00
  0.00000000E+00  0.00000000E+00  0.00000000E+00
  0.00000000E+00  0.00000000E+00  0.00000000E+00
  0.00000000E+00  0.00000000E+00  0.00000000E+00
  0.00000000E+00  0.00000000E+00  0.00000000E+00
  0.00000000E+00  0.00000000E+00  0.00000000E+00
  0.00000000E+00  0.00000000E+00  0.00000000E+00
  0.00000000E+00  0.00000000E+00  0.00000000E+00
  0.00000000E+00  0.00000000E+00  0.00000000E+00
  0.00000000E+00  0.00000000E+00  0.00000000E+00
  0.00000000E+00  0.00000000E+00  0.00000000E+00
  0.00000000E+00  0.00000000E+00  0.00000000E+00
  0.00000000E+00  0.00000000E+00  0.00000000E+00
  0.00000000E+00  0.00000000E+00  0.00000000E+00
  0.00000000E+00  0.00000000E+00  0.00000000E+00
  0.00000000E+00  0.00000000E+00  0.00000000E+00
  0.00000000E+00  0.00000000E+00  0.00000000E+00
  0.00000000E+00  0.00000000E+00  0.00000000E+00
  0.00000000E+00  0.00000000E+00  0.00000000E+00
  0.00000000E+00  0.00000000E+00  0.00000000E+00
  0.00000000E+00  0.00000000E+00  0.00000000E+00
  0.00000000E+00  0.00000000E+00  0.00000000E+00
  0.00000000E+00  0.00000000E+00  0.00000000E+00
  0.00000000E+00  0.00000000E+00  0.00000000E+00
  0.00000000E+00  0.00000000E+00  0.00000000E+00
  0.00000000E+00  0.00000000E+00  0.00000000E+00
  0.00000000E+00  0.00000000E+00  0.00000000E+00
  0.00000000E+00  0.00000000E+00  0.00000000E+00
  0.00000000E+00  0.00000000E+00  0.00000000E+00
