&CONTROL
 calculation = 'relax',
 forc_conv_thr = 0.0007,
 outdir = './output/'
 pseudo_dir = '/home/yyj/SSSP_1.3.0_PBE_efficiency/'
 /
&SYSTEM
 ibrav = 0,
 nat = 12,
 ntyp = 1,
 ecutwfc = 40,
 ecutrho = 240,
 occupations = 'smearing',
 degauss = 0.003
 /
&ELECTRONS
 conv_thr = 1e-7,
 /
&IONS
 /
CELL_PARAMETERS angstrom
     5.7275649276110352    0.0000000000000000    0.0000000000000000
     2.8637824638055176    4.9602167291359347    0.0000000000000000
     0.0000000000000000    0.0000000000000000   14.6765371804359681
ATOMIC_SPECIES
Al 26.9815385 Al.pbe-n-kjpaw_psl.1.0.0.UPF
ATOMIC_POSITIONS angstrom
Al	1.431891	0.826703	0.000000 	0 0 0
Al	4.295674	0.826703	0.000000 	0 0 0
Al	2.863782	3.306811	0.000000 	0 0 0
Al	5.727565	3.306811	0.000000 	0 0 0
Al	0.000000	1.653406	2.338269 
Al	2.863782	1.653406	2.338269 
Al	1.431891	4.133514	2.338269 
Al	4.295674	4.133514	2.338269 
Al	0.000000	0.000000	4.676537 	
Al	2.863782	0.000000	4.676537 	
Al	1.431891	2.480108	4.676537 	
Al	4.295674	2.480108	4.676537 	
K_POINTS automatic
7 7 1 0 0 0

