 O  C 
 1.0000000000000000
    11.2143591840627952    0.0000000000000000    0.0000000000000000
     5.6071786644696973    9.7119196343351284    0.0000000000000000
     0.0000000000000000    0.0000000000000000   31.4456079504766493
 O   C  
   1   1
Cartesian
  6.5017341548362646  6.0086678452901330  6.6656559454764510
  6.0000000000000000  6.0000000000000000  5.4248300000000000
