Pt  O  C  H 
 1.0000000000000000
    11.2143999999999995    0.0000000000000000    0.0000000000000000
     5.6072000000000006    9.7119552882002083    0.0000000000000000
     0.0000000000000000    0.0000000000000000   31.4455999999999989
 Pt  O   C   H  
  64   1   1   1
Selective dynamics
Cartesian
  2.8035439279999430  3.2372860562157419 12.2892549360000594   F   F   F
  1.4017439279999429  0.8092972341656903 12.2892549360000594   F   F   F
  5.6071439279999424  3.2372860562157419 12.2892549360000594   F   F   F
  4.2053439279999427  0.8092972341656903 12.2892549360000594   F   F   F
  5.6072560720000570  1.6186915878843617 14.5781801599999881   F   F   F
  7.0090560720000576  4.0466804099344138 14.5781801599999881   F   F   F
  2.8036560720000572  1.6186915878843617 14.5781801599999881   F   F   F
  4.2054560720000573  4.0466804099344138 14.5781801599999881   F   F   F
  2.8024367744080942  0.0025406869946265 16.8429479630050025   T   T   T
  4.2201836456334512  2.4294035849577984 16.8360601639366294   T   T   T
  5.6181464044984244  0.0179997247093950 16.8388234211578656   T   T   T
  7.0320840879715476  2.4522497749857797 16.9403499506496900   T   T   T
  2.8000882688650384  3.2320882230530503 19.1388392930927260   T   T   T
  1.3867328392135203  0.8182099353919868 19.1484721948019398   T   T   T
  5.5438645916447449  3.2377310413773999 19.1634993960232194   T   T   T
  4.2056989310750197  0.8120187793229114 19.1438783320048103   T   T   T
  5.6071439279999833  8.0932637003159158 12.2892549360000594   F   F   F
  4.2053439279999427  5.6652748782657945 12.2892549360000594   F   F   F
  8.4107439279999827  8.0932637003159158 12.2892549360000594   F   F   F
  7.0089439280000221  5.6652748782657945 12.2892549360000594   F   F   F
  8.4108560720000582  6.4746692319844659 14.5781801599999881   F   F   F
  9.8126560720000580  8.9026580540345179 14.5781801599999881   F   F   F
  5.6072560720000579  6.4746692319844659 14.5781801599999881   F   F   F
  7.0090560720000576  8.9026580540345179 14.5781801599999881   F   F   F
  5.5999690534136102  4.8586665464809347 16.8483211901736460   T   T   T
  7.0129939290066110  7.2820080473296960 16.8264913450078772   T   T   T
  8.4056229030188607  4.8419504107226583 16.9356436416037859   T   T   T
  9.8100805755724885  7.2790806294963097 16.8348743714938003   T   T   T
  5.6059275253141392  8.1101900884776015 19.1423511701387277   T   T   T
  4.1920135646706340  5.6759270223690059 19.1511910666526823   T   T   T
  8.4133830530930585  8.1149583366664189 19.1476027701645357   T   T   T
  6.9637011783172511  5.7468637502466313 19.1487294742812537   T   T   T
  8.4107439280000218  3.2372860562157419 12.2892549360000594   F   F   F
  7.0089439279999421  0.8092972341656903 12.2892549360000594   F   F   F
 11.2143439279999431  3.2372860562157419 12.2892549360000594   F   F   F
  9.8125439279999433  0.8092972341656903 12.2892549360000594   F   F   F
 11.2144560720000577  1.6186915878843617 14.5781801599999881   F   F   F
 12.6162560719999775  4.0466804099344138 14.5781801599999881   F   F   F
  8.4108560720000582  1.6186915878843617 14.5781801599999881   F   F   F
  9.8126560720000580  4.0466804099344138 14.5781801599999881   F   F   F
  8.4090800045144469  0.0057705242806267 16.8398660121239487   T   T   T
  9.7746721177149105  2.4588857976384038 16.9539511740285072   T   T   T
 -0.0169917652565116  0.0217847217096190 16.8403331900788160   T   T   T
  1.3760801954323194  2.4303171296806694 16.8378061589035575   T   T   T
  8.3882874091554118  3.2782202162190055 19.4877152788772285   T   T   T
  7.0001445818204315  0.7898468415071080 19.1634037967198729   T   T   T
 11.2473630870799433  3.2456816206324306 19.1683183884595465   T   T   T
  9.8134308207234646  0.7979291948422255 19.1677293781420381   T   T   T
 11.2143439279999821  8.0932637003159158 12.2892549360000594   F   F   F
  9.8125439280000233  5.6652748782657945 12.2892549360000594   F   F   F
 14.0179439279999833  8.0932637003159158 12.2892549360000594   F   F   F
 12.6161439279999428  5.6652748782657945 12.2892549360000594   F   F   F
 14.0180560719999772  6.4746692319844659 14.5781801599999881   F   F   F
 15.4198560720000568  8.9026580540345179 14.5781801599999881   F   F   F
 11.2144560719999777  6.4746692319844659 14.5781801599999881   F   F   F
 12.6162560720000574  8.9026580540345179 14.5781801599999881   F   F   F
 11.2174913337286419  4.8579819205900545 16.8462184336114511   T   T   T
 12.6111850145041053  7.2845986565961267 16.8464326131307054   T   T   T
  2.8039861059784621  4.8525066937249557 16.8444176130445129   T   T   T
  4.2117845281570654  7.2827893062611988 16.8458682481134225   T   T   T
 11.2095213717275115  8.1016236722544974 19.1375446253962629   T   T   T
  9.8452176286306763  5.7228050198190683 19.1568397866386988   T   T   T
 14.0163651635266877  8.1102008000161909 19.1442704647290469   T   T   T
 12.6164056183010729  5.6691690382620710 19.1450130808645831   T   T   T
  8.0129398615701852  4.0356510523085936 22.3496871229398053   T   T   T
  8.1866295548500965  3.6862610891822736 21.2582690031035710   T   T   T
  9.3934824445612577  3.5473590021242831 21.6013502583598189   T   T   T
