&CONTROL
calculation = 'relax'
pseudo_dir = '/home/cjw/pseudopotential/SSSP_1.1.2_PBE_efficiency'
disk_io = 'default'

/

&SYSTEM
ecutwfc =   60
ecutrho =   480
ibrav = 0
nosym = .true.
ntyp = 3
nat = 6
nspin = 2
starting_magnetization(1) = 0.5
starting_magnetization(2) = 0.5
starting_magnetization(3) = 0.5
occupations = 'smearing'
degauss = 0.002

/

&ELECTRONS

/

&IONS

/

ATOMIC_SPECIES
C 12.011 C.pbe-n-kjpaw_psl.1.0.0.UPF
O 15.999 O.pbe-n-kjpaw_psl.0.1.UPF
H 1.008 H.pbe-rrkjus_psl.1.0.0.UPF

K_POINTS automatic
1 1 1 0 0 0

CELL_PARAMETERS angstrom
20.00000000000000 0.00000000000000 0.00000000000000
0.00000000000000 20.00000000000000 0.00000000000000
0.00000000000000 0.00000000000000 20.00000000000000

ATOMIC_POSITIONS angstrom
C 10.0600995000 10.6484300000 10.0000000000 
O 10.0600995000 9.2254900000 10.0000000000 
H 9.0142355000 10.9538260000 10.0000000000 
H 10.9857645000 8.9355830000 10.0000000000 
H 10.5443755000 11.0644170000 10.8917720000 
H 10.5443755000 11.0644170000 9.1082280000 