Pt H                                    
   1.00000000000000     
    11.2143999999999995    0.0000000000000000    0.0000000000000000
     5.6072000000000006    9.7119552882002083    0.0000000000000000
     0.0000000000000000    0.0000000000000000   31.4455999999999989
   Pt   H 
    64     1
Selective dynamics
Direct
  0.0833299999999966  0.3333299999999966  0.3908100000000019   F   F   F
  0.0833299999999966  0.0833299999999966  0.3908100000000019   F   F   F
  0.3333299999999966  0.3333299999999966  0.3908100000000019   F   F   F
  0.3333299999999966  0.0833299999999966  0.3908100000000019   F   F   F
  0.4166700000000034  0.1666700000000034  0.4635999999999996   F   F   F
  0.4166700000000034  0.4166700000000034  0.4635999999999996   F   F   F
  0.1666700000000034  0.1666700000000034  0.4635999999999996   F   F   F
  0.1666700000000034  0.4166700000000034  0.4635999999999996   F   F   F
  0.2499714370711312  0.0000330378827912  0.5357139578331234   T   T   T
  0.2503176945049382  0.2500946022783973  0.5356527835357645   T   T   T
  0.5000054429604835  0.0004215650897707  0.5356774098292603   T   T   T
  0.5007178335555402  0.2509044338342368  0.5365932421944268   T   T   T
  0.0831168882178703  0.3335608823910022  0.6089456960423327   T   T   T
  0.0833846024342119  0.0834596352156101  0.6089694421437818   T   T   T
  0.3325542681553619  0.3332602912511787  0.6089012395170452   T   T   T
  0.3330924926624058  0.0833923260623769  0.6089730616789417   T   T   T
  0.0833299999999966  0.8333300000000037  0.3908100000000019   F   F   F
  0.0833299999999966  0.5833299999999966  0.3908100000000019   F   F   F
  0.3333299999999966  0.8333300000000037  0.3908100000000019   F   F   F
  0.3333300000000037  0.5833299999999966  0.3908100000000019   F   F   F
  0.4166700000000034  0.6666700000000034  0.4635999999999996   F   F   F
  0.4166700000000034  0.9166700000000034  0.4635999999999996   F   F   F
  0.1666700000000034  0.6666700000000034  0.4635999999999996   F   F   F
  0.1666700000000034  0.9166700000000034  0.4635999999999996   F   F   F
  0.2499312027225983  0.5000749992416935  0.5357675361307057   T   T   T
  0.2502984705994347  0.7496650654412019  0.5356445127577973   T   T   T
  0.5007623666475651  0.4983248280587563  0.5366398679296848   T   T   T
  0.4999804980707491  0.7496449010189089  0.5356368070555103   T   T   T
  0.0830852132385871  0.8335487892947502  0.6089595765924103   T   T   T
  0.0831085072865341  0.5835490321158960  0.6089398830815969   T   T   T
  0.3331366158197343  0.8337218734762470  0.6089433102311619   T   T   T
  0.3324743826677800  0.5845541258192694  0.6089047650649444   T   T   T
  0.5833300000000037  0.3333299999999966  0.3908100000000019   F   F   F
  0.5833299999999966  0.0833299999999966  0.3908100000000019   F   F   F
  0.8333299999999966  0.3333299999999966  0.3908100000000019   F   F   F
  0.8333299999999966  0.0833299999999966  0.3908100000000019   F   F   F
  0.9166700000000034  0.1666700000000034  0.4635999999999996   F   F   F
  0.9166699999999963  0.4166700000000034  0.4635999999999996   F   F   F
  0.6666700000000034  0.1666700000000034  0.4635999999999996   F   F   F
  0.6666700000000034  0.4166700000000034  0.4635999999999996   F   F   F
  0.7499095930419933  0.0000991743875821  0.5357656484505979   T   T   T
  0.7482540943027929  0.2509373845359937  0.5366050697710106   T   T   T
  0.9995248756217583  0.0004391057745135  0.5356641393426886   T   T   T
  0.9995430021053634  0.2500611060577366  0.5356456069202995   T   T   T
  0.5831578689307885  0.3336076346253951  0.6134759296739956   T   T   T
  0.5828028885082805  0.0829964403127390  0.6089225151166793   T   T   T
  0.8340450996746916  0.3332067168935559  0.6089021370993566   T   T   T
  0.8340379168882318  0.0829161610936121  0.6089248574704882   T   T   T
  0.5833299999999966  0.8333300000000037  0.3908100000000019   F   F   F
  0.5833300000000037  0.5833299999999966  0.3908100000000019   F   F   F
  0.8333299999999966  0.8333300000000037  0.3908100000000019   F   F   F
  0.8333299999999966  0.5833299999999966  0.3908100000000019   F   F   F
  0.9166699999999963  0.6666700000000034  0.4635999999999996   F   F   F
  0.9166700000000034  0.9166700000000034  0.4635999999999996   F   F   F
  0.6666699999999963  0.6666700000000034  0.4635999999999996   F   F   F
  0.6666700000000034  0.9166700000000034  0.4635999999999996   F   F   F
  0.7499017212850690  0.5000918023065682  0.5357768451572595   T   T   T
  0.7498939027945647  0.7500792661672494  0.5357360303774737   T   T   T
  0.0000005705994101  0.4999454395141724  0.5357377653784849   T   T   T
 -0.0000300931709393  0.7501197452164605  0.5357492111584943   T   T   T
  0.5833417605807301  0.8334565888188914  0.6089714440763774   T   T   T
  0.5828885128591147  0.5844888777524024  0.6089089066626662   T   T   T
  0.8331320042705835  0.8335402475389739  0.6089450310248432   T   T   T
  0.8332828751620204  0.5835294949986934  0.6089406881569314   T   T   T
  0.5839675004284229  0.3325960233523195  0.6629942120774315   T   T   T
 
  0.00000000E+00  0.00000000E+00  0.00000000E+00
  0.00000000E+00  0.00000000E+00  0.00000000E+00
  0.00000000E+00  0.00000000E+00  0.00000000E+00
  0.00000000E+00  0.00000000E+00  0.00000000E+00
  0.00000000E+00  0.00000000E+00  0.00000000E+00
  0.00000000E+00  0.00000000E+00  0.00000000E+00
  0.00000000E+00  0.00000000E+00  0.00000000E+00
  0.00000000E+00  0.00000000E+00  0.00000000E+00
  0.00000000E+00  0.00000000E+00  0.00000000E+00
  0.00000000E+00  0.00000000E+00  0.00000000E+00
  0.00000000E+00  0.00000000E+00  0.00000000E+00
  0.00000000E+00  0.00000000E+00  0.00000000E+00
  0.00000000E+00  0.00000000E+00  0.00000000E+00
  0.00000000E+00  0.00000000E+00  0.00000000E+00
  0.00000000E+00  0.00000000E+00  0.00000000E+00
  0.00000000E+00  0.00000000E+00  0.00000000E+00
  0.00000000E+00  0.00000000E+00  0.00000000E+00
  0.00000000E+00  0.00000000E+00  0.00000000E+00
  0.00000000E+00  0.00000000E+00  0.00000000E+00
  0.00000000E+00  0.00000000E+00  0.00000000E+00
  0.00000000E+00  0.00000000E+00  0.00000000E+00
  0.00000000E+00  0.00000000E+00  0.00000000E+00
  0.00000000E+00  0.00000000E+00  0.00000000E+00
  0.00000000E+00  0.00000000E+00  0.00000000E+00
  0.00000000E+00  0.00000000E+00  0.00000000E+00
  0.00000000E+00  0.00000000E+00  0.00000000E+00
  0.00000000E+00  0.00000000E+00  0.00000000E+00
  0.00000000E+00  0.00000000E+00  0.00000000E+00
  0.00000000E+00  0.00000000E+00  0.00000000E+00
  0.00000000E+00  0.00000000E+00  0.00000000E+00
  0.00000000E+00  0.00000000E+00  0.00000000E+00
  0.00000000E+00  0.00000000E+00  0.00000000E+00
  0.00000000E+00  0.00000000E+00  0.00000000E+00
  0.00000000E+00  0.00000000E+00  0.00000000E+00
  0.00000000E+00  0.00000000E+00  0.00000000E+00
  0.00000000E+00  0.00000000E+00  0.00000000E+00
  0.00000000E+00  0.00000000E+00  0.00000000E+00
  0.00000000E+00  0.00000000E+00  0.00000000E+00
  0.00000000E+00  0.00000000E+00  0.00000000E+00
  0.00000000E+00  0.00000000E+00  0.00000000E+00
  0.00000000E+00  0.00000000E+00  0.00000000E+00
  0.00000000E+00  0.00000000E+00  0.00000000E+00
  0.00000000E+00  0.00000000E+00  0.00000000E+00
  0.00000000E+00  0.00000000E+00  0.00000000E+00
  0.00000000E+00  0.00000000E+00  0.00000000E+00
  0.00000000E+00  0.00000000E+00  0.00000000E+00
  0.00000000E+00  0.00000000E+00  0.00000000E+00
  0.00000000E+00  0.00000000E+00  0.00000000E+00
  0.00000000E+00  0.00000000E+00  0.00000000E+00
  0.00000000E+00  0.00000000E+00  0.00000000E+00
  0.00000000E+00  0.00000000E+00  0.00000000E+00
  0.00000000E+00  0.00000000E+00  0.00000000E+00
  0.00000000E+00  0.00000000E+00  0.00000000E+00
  0.00000000E+00  0.00000000E+00  0.00000000E+00
  0.00000000E+00  0.00000000E+00  0.00000000E+00
  0.00000000E+00  0.00000000E+00  0.00000000E+00
  0.00000000E+00  0.00000000E+00  0.00000000E+00
  0.00000000E+00  0.00000000E+00  0.00000000E+00
  0.00000000E+00  0.00000000E+00  0.00000000E+00
  0.00000000E+00  0.00000000E+00  0.00000000E+00
  0.00000000E+00  0.00000000E+00  0.00000000E+00
  0.00000000E+00  0.00000000E+00  0.00000000E+00
  0.00000000E+00  0.00000000E+00  0.00000000E+00
  0.00000000E+00  0.00000000E+00  0.00000000E+00
  0.00000000E+00  0.00000000E+00  0.00000000E+00
