&CONTROL
 calculation = 'vc-relax',
 prefix = 'cu1zn1',
 etot_conv_thr = 0.0001,
 forc_conv_thr = 0.001,
 pseudo_dir = '../',
 /
&SYSTEM
 ibrav = 0,
 nat = 2,
 ntyp = 2,
 occupations = 'smearing',
 smearing = 'mp',
 degauss = 0.01,
 ecutwfc = 40,
 ecutrho = 320,
 /
&ELECTRONS
 electron_maxstep = 100,
 conv_thr = 1e-6,
 mixing_beta = 0.7,
 /
&IONS
 ion_dynamics = 'bfgs',
 /
&CELL
 cell_dynamics = 'bfgs',
 press_conv_thr = 0.5,
 cell_dofree = 'all',
 /
CELL_PARAMETERS angstrom
 2.945000 0.000000 0.000000
 0.000000 2.945000 0.000000
 0.000000 0.000000 2.945000
ATOMIC_SPECIES
Cu 63.546 Cu.pbe-dn-kjpaw_psl.1.0.0.UPF
Zn 65.38 Zn.pbe-dnl-kjpaw_psl.1.0.0.UPF
ATOMIC_POSITIONS angstrom
Cu   0.000000   0.000000   0.000000 1 1 1
Zn   1.472500   1.472500   1.472500 1 1 1
K_POINTS automatic
16 16 16 0 0 0

