&DOS
 prefix='cu1zn1'
 fildos='cu1zn1.dos.dat'
 emin=0.0
 emax=20.0
/
