 O  C                                   
   1.00000000000000     
    11.2143591840627952    0.0000000000000000    0.0000000000000000
     5.6071786644696973    9.7119196343351284    0.0000000000000000
     0.0000000000000000    0.0000000000000000   31.4456079504766493
   O    C 
     1     1
Direct
  0.2672068900958209  0.6186212770708437  0.2091063103650086
  0.2293464464488436  0.6178662864006697  0.1749055352477108
 
  0.00000000E+00  0.00000000E+00  0.00000000E+00
  0.00000000E+00  0.00000000E+00  0.00000000E+00
