 O  C                                   
   1.00000000000000     
    11.2143591840627952    0.0000000000000000    0.0000000000000000
     5.6071786644696973    9.7119196343351284    0.0000000000000000
     0.0000000000000000    0.0000000000000000   31.4456079504766493
   O    C 
     1     1
Direct
  0.2672068900958225  0.6186212770708427  0.2091063103650085
  0.2293464464488420  0.6178662864006707  0.1753825493993732
 
  0.00000000E+00  0.00000000E+00  0.00000000E+00
  0.00000000E+00  0.00000000E+00  0.00000000E+00
