Pt  O  C  H                             
   1.00000000000000     
    11.2143999999999995    0.0000000000000000    0.0000000000000000
     5.6072000000000006    9.7119552882002083    0.0000000000000000
     0.0000000000000000    0.0000000000000000   31.4455999999999989
   Pt   O    C    H 
    64     1     1     1
Selective dynamics
Direct
  0.0833299999999966  0.3333299999999966  0.3908100000000019   F   F   F
  0.0833299999999966  0.0833299999999966  0.3908100000000019   F   F   F
  0.3333299999999966  0.3333299999999966  0.3908100000000019   F   F   F
  0.3333299999999966  0.0833299999999966  0.3908100000000019   F   F   F
  0.4166700000000034  0.1666700000000034  0.4635999999999996   F   F   F
  0.4166700000000034  0.4166700000000034  0.4635999999999996   F   F   F
  0.1666700000000034  0.1666700000000034  0.4635999999999996   F   F   F
  0.1666700000000034  0.4166700000000034  0.4635999999999996   F   F   F
  0.2487991083997017  0.9999788442058986  0.5355272380118734   T   T   T
  0.2489785363491066  0.2498047668762169  0.5355495040059068   T   T   T
  0.4985365707420968  0.0003637652246979  0.5353651336269536   T   T   T
  0.4991161156130630  0.2509683266063121  0.5371809864157200   T   T   T
  0.0796600674072678  0.3324795417259878  0.6092673179452746   T   T   T
  0.0798864621753737  0.0820428766287051  0.6089380902193895   T   T   T
  0.3273059821533622  0.3331488293279179  0.6093061073847323   T   T   T
  0.3288017661340703  0.0833377233851920  0.6088395743525510   T   T   T
  0.0833299999999966  0.8333300000000037  0.3908100000000019   F   F   F
  0.0833299999999966  0.5833299999999966  0.3908100000000019   F   F   F
  0.3333299999999966  0.8333300000000037  0.3908100000000019   F   F   F
  0.3333300000000037  0.5833299999999966  0.3908100000000019   F   F   F
  0.4166700000000034  0.6666700000000034  0.4635999999999996   F   F   F
  0.4166700000000034  0.9166700000000034  0.4635999999999996   F   F   F
  0.1666700000000034  0.6666700000000034  0.4635999999999996   F   F   F
  0.1666700000000034  0.9166700000000034  0.4635999999999996   F   F   F
  0.2479286156640512  0.4997852189602199  0.5358963125948080   T   T   T
  0.2489925309910674  0.7497623751011702  0.5354800688799273   T   T   T
  0.4984582438473666  0.4973747388723027  0.5370238759333574   T   T   T
  0.4984515326094368  0.7495620600167499  0.5351854265076170   T   T   T
  0.0793100566378442  0.8326304941141842  0.6090488059512325   T   T   T
  0.0784292402305269  0.5829191249597514  0.6093319618023045   T   T   T
  0.3282147703612779  0.8337692809694559  0.6088593506253943   T   T   T
  0.3257448186170251  0.5854173277754526  0.6088946981024961   T   T   T
  0.5833300000000037  0.3333299999999966  0.3908100000000019   F   F   F
  0.5833299999999966  0.0833299999999966  0.3908100000000019   F   F   F
  0.8333299999999966  0.3333299999999966  0.3908100000000019   F   F   F
  0.8333299999999966  0.0833299999999966  0.3908100000000019   F   F   F
  0.9166700000000034  0.1666700000000034  0.4635999999999996   F   F   F
  0.9166699999999963  0.4166700000000034  0.4635999999999996   F   F   F
  0.6666700000000034  0.1666700000000034  0.4635999999999996   F   F   F
  0.6666700000000034  0.4166700000000034  0.4635999999999996   F   F   F
  0.7481636567870211  0.9997097762249965  0.5354769427920161   T   T   T
  0.7468689930558341  0.2503864740139079  0.5364558081640780   T   T   T
  0.9989156973842412  0.9999362695057741  0.5353360540992043   T   T   T
  0.9981260645665415  0.2497917040927717  0.5358409348608433   T   T   T
  0.5767925972819583  0.3333163457659083  0.6146675384214220   T   T   T
  0.5785325986076728  0.0811065026876179  0.6087537522817215   T   T   T
  0.8319629360891696  0.3327051301061417  0.6097203347145879   T   T   T
  0.8322127524024481  0.0779193091601584  0.6077808004602119   T   T   T
  0.5833299999999966  0.8333300000000037  0.3908100000000019   F   F   F
  0.5833300000000037  0.5833299999999966  0.3908100000000019   F   F   F
  0.8333299999999966  0.8333300000000037  0.3908100000000019   F   F   F
  0.8333299999999966  0.5833299999999966  0.3908100000000019   F   F   F
  0.9166699999999963  0.6666700000000034  0.4635999999999996   F   F   F
  0.9166700000000034  0.9166700000000034  0.4635999999999996   F   F   F
  0.6666699999999963  0.6666700000000034  0.4635999999999996   F   F   F
  0.6666700000000034  0.9166700000000034  0.4635999999999996   F   F   F
  0.7483784807715281  0.4989860131545640  0.5360431939926187   T   T   T
  0.7482006716168215  0.7497203451777281  0.5356599887065627   T   T   T
  0.9987411798914465  0.4995684010025627  0.5358715246084103   T   T   T
  0.9983627339235213  0.7496305873526694  0.5358869433126969   T   T   T
  0.5783499246560737  0.8335190313334380  0.6088482370080186   T   T   T
  0.5764301182552742  0.5877730498404645  0.6081794428512524   T   T   T
  0.8292447222691095  0.8320077620067181  0.6090374902556448   T   T   T
  0.8290458247659416  0.5837616766438387  0.6088294884408967   T   T   T
  0.5986626306607405  0.3321806374739680  0.7080827390424815   T   T   T
  0.6400661964455523  0.3329072005949243  0.6731975709823814   T   T   T
  0.7456866043042254  0.3335912414577322  0.6666445358748234   T   T   T
 
  0.00000000E+00  0.00000000E+00  0.00000000E+00
  0.00000000E+00  0.00000000E+00  0.00000000E+00
  0.00000000E+00  0.00000000E+00  0.00000000E+00
  0.00000000E+00  0.00000000E+00  0.00000000E+00
  0.00000000E+00  0.00000000E+00  0.00000000E+00
  0.00000000E+00  0.00000000E+00  0.00000000E+00
  0.00000000E+00  0.00000000E+00  0.00000000E+00
  0.00000000E+00  0.00000000E+00  0.00000000E+00
  0.00000000E+00  0.00000000E+00  0.00000000E+00
  0.00000000E+00  0.00000000E+00  0.00000000E+00
  0.00000000E+00  0.00000000E+00  0.00000000E+00
  0.00000000E+00  0.00000000E+00  0.00000000E+00
  0.00000000E+00  0.00000000E+00  0.00000000E+00
  0.00000000E+00  0.00000000E+00  0.00000000E+00
  0.00000000E+00  0.00000000E+00  0.00000000E+00
  0.00000000E+00  0.00000000E+00  0.00000000E+00
  0.00000000E+00  0.00000000E+00  0.00000000E+00
  0.00000000E+00  0.00000000E+00  0.00000000E+00
  0.00000000E+00  0.00000000E+00  0.00000000E+00
  0.00000000E+00  0.00000000E+00  0.00000000E+00
  0.00000000E+00  0.00000000E+00  0.00000000E+00
  0.00000000E+00  0.00000000E+00  0.00000000E+00
  0.00000000E+00  0.00000000E+00  0.00000000E+00
  0.00000000E+00  0.00000000E+00  0.00000000E+00
  0.00000000E+00  0.00000000E+00  0.00000000E+00
  0.00000000E+00  0.00000000E+00  0.00000000E+00
  0.00000000E+00  0.00000000E+00  0.00000000E+00
  0.00000000E+00  0.00000000E+00  0.00000000E+00
  0.00000000E+00  0.00000000E+00  0.00000000E+00
  0.00000000E+00  0.00000000E+00  0.00000000E+00
  0.00000000E+00  0.00000000E+00  0.00000000E+00
  0.00000000E+00  0.00000000E+00  0.00000000E+00
  0.00000000E+00  0.00000000E+00  0.00000000E+00
  0.00000000E+00  0.00000000E+00  0.00000000E+00
  0.00000000E+00  0.00000000E+00  0.00000000E+00
  0.00000000E+00  0.00000000E+00  0.00000000E+00
  0.00000000E+00  0.00000000E+00  0.00000000E+00
  0.00000000E+00  0.00000000E+00  0.00000000E+00
  0.00000000E+00  0.00000000E+00  0.00000000E+00
  0.00000000E+00  0.00000000E+00  0.00000000E+00
  0.00000000E+00  0.00000000E+00  0.00000000E+00
  0.00000000E+00  0.00000000E+00  0.00000000E+00
  0.00000000E+00  0.00000000E+00  0.00000000E+00
  0.00000000E+00  0.00000000E+00  0.00000000E+00
  0.00000000E+00  0.00000000E+00  0.00000000E+00
  0.00000000E+00  0.00000000E+00  0.00000000E+00
  0.00000000E+00  0.00000000E+00  0.00000000E+00
  0.00000000E+00  0.00000000E+00  0.00000000E+00
  0.00000000E+00  0.00000000E+00  0.00000000E+00
  0.00000000E+00  0.00000000E+00  0.00000000E+00
  0.00000000E+00  0.00000000E+00  0.00000000E+00
  0.00000000E+00  0.00000000E+00  0.00000000E+00
  0.00000000E+00  0.00000000E+00  0.00000000E+00
  0.00000000E+00  0.00000000E+00  0.00000000E+00
  0.00000000E+00  0.00000000E+00  0.00000000E+00
  0.00000000E+00  0.00000000E+00  0.00000000E+00
  0.00000000E+00  0.00000000E+00  0.00000000E+00
  0.00000000E+00  0.00000000E+00  0.00000000E+00
  0.00000000E+00  0.00000000E+00  0.00000000E+00
  0.00000000E+00  0.00000000E+00  0.00000000E+00
  0.00000000E+00  0.00000000E+00  0.00000000E+00
  0.00000000E+00  0.00000000E+00  0.00000000E+00
  0.00000000E+00  0.00000000E+00  0.00000000E+00
  0.00000000E+00  0.00000000E+00  0.00000000E+00
  0.00000000E+00  0.00000000E+00  0.00000000E+00
  0.00000000E+00  0.00000000E+00  0.00000000E+00
  0.00000000E+00  0.00000000E+00  0.00000000E+00
