Pt  O  C  H 
 1.0000000000000000
    11.2143999999999995    0.0000000000000000    0.0000000000000000
     5.6072000000000006    9.7119552882002083    0.0000000000000000
     0.0000000000000000    0.0000000000000000   31.4455999999999989
 Pt  O   C   H  
  64   1   1   1
Selective dynamics
Cartesian
  2.8035439279999430  3.2372860562157419 12.2892549360000594   F   F   F
  1.4017439279999429  0.8092972341656903 12.2892549360000594   F   F   F
  5.6071439279999424  3.2372860562157419 12.2892549360000594   F   F   F
  4.2053439279999427  0.8092972341656903 12.2892549360000594   F   F   F
  5.6072560720000570  1.6186915878843617 14.5781801599999881   F   F   F
  7.0090560720000576  4.0466804099344138 14.5781801599999881   F   F   F
  2.8036560720000572  1.6186915878843617 14.5781801599999881   F   F   F
  4.2054560720000573  4.0466804099344138 14.5781801599999881   F   F   F
  2.7900140964689122 -0.0002054641263906 16.8399753156262193   T   T   T
  4.1928501868617092  2.4260927266810679 16.8406754831681020   T   T   T
  5.5928282232981017  0.0035328715976608 16.8348778459797401   T   T   T
  7.0045173678780142  2.4373931667549109 16.8919784264342709   T   T   T
  2.7576191462980706  3.2290264434841132 19.1587763731798191   T   T   T
  1.3559095592519754  0.7967967495333381 19.1484236098028546   T   T   T
  5.5385723220681209  3.2355265347489541 19.1599961303772410   T   T   T
  4.1546058086993964  0.8093722433373852 19.1453257192604980   T   T   T
  5.6071439279999833  8.0932637003159158 12.2892549360000594   F   F   F
  4.2053439279999427  5.6652748782657945 12.2892549360000594   F   F   F
  8.4107439279999827  8.0932637003159158 12.2892549360000594   F   F   F
  7.0089439280000221  5.6652748782657945 12.2892549360000594   F   F   F
  8.4108560720000582  6.4746692319844659 14.5781801599999881   F   F   F
  9.8126560720000580  8.9026580540345179 14.5781801599999881   F   F   F
  5.6072560720000579  6.4746692319844659 14.5781801599999881   F   F   F
  7.0090560720000576  8.9026580540345179 14.5781801599999881   F   F   F
  5.5827663472566504  4.8538917002449899 16.8515810873312510   T   T   T
  6.9963694292134786  7.2816586637573364 16.8384920539707217   T   T   T
  8.3787897656066441  4.8304812254080511 16.8870379930500079   T   T   T
  9.7927792502211517  7.2797132126138875 16.8292268477880178   T   T   T
  5.5581404057564781  8.0864701304289923 19.1519051324199872   T   T   T
  4.1480809891155470  5.6612844782459089 19.1608091380506060   T   T   T
  8.3558428329914758  8.0975299774502165 19.1459475960258949   T   T   T
  6.9355847342012567  5.6855469122928355 19.1470591186517431   T   T   T
  8.4107439280000218  3.2372860562157419 12.2892549360000594   F   F   F
  7.0089439279999421  0.8092972341656903 12.2892549360000594   F   F   F
 11.2143439279999431  3.2372860562157419 12.2892549360000594   F   F   F
  9.8125439279999433  0.8092972341656903 12.2892549360000594   F   F   F
 11.2144560720000577  1.6186915878843617 14.5781801599999881   F   F   F
 12.6162560719999775  4.0466804099344138 14.5781801599999881   F   F   F
  8.4108560720000582  1.6186915878843617 14.5781801599999881   F   F   F
  9.8126560720000580  4.0466804099344138 14.5781801599999881   F   F   F
  8.3885791699211349 -0.0028186403264340 16.8383937522606395   T   T   T
  9.7796546728161005  2.4317422403931777 16.8691747612043059   T   T   T
 11.2018828471186307 -0.0006189477104230 16.8339634227820198   T   T   T
 12.5940169816640264  2.4259658615123700 16.8498397012600378   T   T   T
  8.3373543169373772  3.2371534469047853 19.3285895461846557   T   T   T
  6.9426763556959017  0.7877027276844014 19.1426269927500172   T   T   T
 11.1955093560095271  3.2312173477456732 19.1730217573010364   T   T   T
  9.7696758408648510  0.7567488466509048 19.1120319389517448   T   T   T
 11.2143439279999821  8.0932637003159158 12.2892549360000594   F   F   F
  9.8125439280000233  5.6652748782657945 12.2892549360000594   F   F   F
 14.0179439279999833  8.0932637003159158 12.2892549360000594   F   F   F
 12.6161439279999428  5.6652748782657945 12.2892549360000594   F   F   F
 14.0180560719999772  6.4746692319844659 14.5781801599999881   F   F   F
 15.4198560720000568  8.9026580540345179 14.5781801599999881   F   F   F
 11.2144560719999777  6.4746692319844659 14.5781801599999881   F   F   F
 12.6162560720000574  8.9026580540345179 14.5781801599999881   F   F   F
 11.1905300077245453  4.8461298491944298 16.8561998610143817   T   T   T
 12.5944535312602337  7.2812504710201384 16.8441497408711420   T   T   T
  2.7870630258762312  4.8517859739345806 16.8508016142261958   T   T   T
  4.1849676727158451  7.2803787470363552 16.8512864646337341   T   T   T
 11.1595553075558964  8.0950995641742853 19.1455981216592441   T   T   T
  9.7600789632274036  5.7084255796596723 19.1245674881232937   T   T   T
 13.9647159365387399  8.0804221840447799 19.1515493035828648   T   T   T
 12.5705199705325423  5.6694673025297719 19.1450085617170984   T   T   T
  8.5762454757258624  3.2261234987530027 22.2660865788342477   T   T   T
  9.0446356085948487  3.2331798472978126 21.1691015380835239   T   T   T
 10.2329406644110747  3.2398232215726828 20.9630374173054292   T   T   T
