&CONTROL
 calculation = 'relax',
 forc_conv_thr = 0.1,
 outdir = './output/'
 pseudo_dir = '/home/mini21k/QE/Potential/'
 /
&SYSTEM
 ibrav = 0,
 nat = 8,
 ntyp = 1,
 ecutwfc = 30,
 ecutrho = 240,
 occupations = 'smearing',
 degauss = 0.003
 /
&ELECTRONS
 conv_thr = 1e-4,
 /
&IONS
 /
CELL_PARAMETERS angstrom
  5.727560   0.000000   0.000000
  2.863780   4.960212   0.000000
  0.000000   0.000000  12.338300
ATOMIC_SPECIES
Al 26.9815385 Al.pbe-n-kjpaw_psl.1.0.0.UPF
ATOMIC_POSITIONS angstrom
Al	0.000000	1.653406	0.000000 	0 0 0
Al	2.863782	1.653406	0.000000 	0 0 0
Al	1.431891	4.133514	0.000000 	0 0 0
Al	4.295674	4.133514	0.000000 	0 0 0
Al	0.000000	0.000000	2.338269 	
Al	2.863782	0.000000	2.338269 	
Al	1.431891	2.480108	2.338269 	
Al	4.295674	2.480108	2.338269 	
K_POINTS automatic
3 3 1 0 0 0

