phonon calculation.
&INPUTPH
prefix = 'al'
tr2_ph = 1d-14 ! threshold for self-consistency of phonons
ldisp = .true. ! the dynamical matrix calculation for q1,q2, and q3
nq1   = 4 
nq2   = 4 
nq3   = 4 ! q-points
fildyn = 'al.dyn' ! output
/

