&CONTROL
 calculation = 'scf',
 prefix = 'al',
 etot_conv_thr = 0.0001,
 forc_conv_thr = 0.001,
 pseudo_dir = '../../pseudo'
/
&SYSTEM
 ibrav = 2,
 celldm(1) = 7.627339,
 nat = 1,
 ntyp = 1,
 occupations = 'smearing',
 smearing = 'gauss',
 degauss = 0.01,
 ecutwfc = 40,
 ecutrho = 320
 /
&ELECTRONS
  mixing_beta = 0.7
  conv_thr= 1e-10 ! Reduced the threshold for better resolution
/
ATOMIC_SPECIES
  Al 26.981539 Al.pbe-n-kjpaw_psl.1.0.0.UPF

ATOMIC_POSITIONS (alat)
  Al 0.00 0.00 0.00

K_POINTS (automatic)
  14 14 14 0 0 0
