Pt  H 
 1.0000000000000000
    11.2143999999999995    0.0000000000000000    0.0000000000000000
     5.6072000000000006    9.7119552882002083    0.0000000000000000
     0.0000000000000000    0.0000000000000000   31.4455999999999989
 Pt  H  
  64   1
Selective dynamics
Cartesian
  2.8035439279999430  3.2372860562157419 12.2892549360000594   F   F   F
  1.4017439279999429  0.8092972341656903 12.2892549360000594   F   F   F
  5.6071439279999424  3.2372860562157419 12.2892549360000594   F   F   F
  4.2053439279999427  0.8092972341656903 12.2892549360000594   F   F   F
  5.6072560720000570  1.6186915878843617 14.5781801599999881   F   F   F
  7.0090560720000576  4.0466804099344138 14.5781801599999881   F   F   F
  2.8036560720000572  1.6186915878843617 14.5781801599999881   F   F   F
  4.2054560720000573  4.0466804099344138 14.5781801599999881   F   F   F
  2.8034649339068802  0.0003208624404849 16.8458468324372639   F   F   F
  4.2094932071516080  2.4289075951480084 16.8439231699522374   F   F   F
  5.6096248393074086  0.0040942213029191 16.8446975585269847   F   F   F
  7.0221214140205825  2.4367726430092951 16.8734964567490664   F   F   F
  2.8024486109733124  3.2395283756740212 19.1486627794687791   F   F   F
  1.4030831521191949  0.8105562455835049 19.1494094898765042   F   F   F
  5.5980536899050994  3.2366090479640262 19.1472648173571969   F   F   F
  4.2030299004102440  0.8099025420968173 19.1495233083313288   F   F   F
  5.6071439279999833  8.0932637003159158 12.2892549360000594   F   F   F
  4.2053439279999427  5.6652748782657945 12.2892549360000594   F   F   F
  8.4107439279999827  8.0932637003159158 12.2892549360000594   F   F   F
  7.0089439280000221  5.6652748782657945 12.2892549360000594   F   F   F
  8.4108560720000582  6.4746692319844659 14.5781801599999881   F   F   F
  9.8126560720000580  8.9026580540345179 14.5781801599999881   F   F   F
  5.6072560720000579  6.4746692319844659 14.5781801599999881   F   F   F
  7.0090560720000576  8.9026580540345179 14.5781801599999881   F   F   F
  5.6068490155603303  4.8567060333820802 16.8475316341517178   F   F   F
  7.0104691236322081  7.2807135966906360 16.8436630903765909   F   F   F
  8.4099564604235120  4.8397084491066975 16.8749626309696943   F   F   F
  9.8103901865578358  7.2805177607229137 16.8434207799447542   F   F   F
  5.6056255866763349  8.0953885721640297 19.1490992616942961   F   F   F
  4.2040881769943610  5.6674021083820900 19.1484799874306617   F   F   F
  8.4107725534048416  8.0970695579958232 19.1485877562050248   F   F   F
  7.0062126112833596  5.6771635334897033 19.1473756803262134   F   F   F
  8.4107439280000218  3.2372860562157419 12.2892549360000594   F   F   F
  7.0089439279999421  0.8092972341656903 12.2892549360000594   F   F   F
 11.2143439279999431  3.2372860562157419 12.2892549360000594   F   F   F
  9.8125439279999433  0.8092972341656903 12.2892549360000594   F   F   F
 11.2144560720000577  1.6186915878843617 14.5781801599999881   F   F   F
 12.6162560719999775  4.0466804099344138 14.5781801599999881   F   F   F
  8.4108560720000582  1.6186915878843617 14.5781801599999881   F   F   F
  9.8126560720000580  4.0466804099344138 14.5781801599999881   F   F   F
  8.4103422308361804  0.0009631772179320 16.8474722749181218   F   F   F
  9.7982768177194632  2.4370926587514732 16.8738683819912900   F   F   F
 11.2115339190714973  0.0042645756488656 16.8442802601144486   F   F   F
 12.6114176766973269  2.4285822813506281 16.8436974969729683   F   F   F
  8.4103703342089489  3.2399824312840688 19.2911186941565944   F   F   F
  7.0011623530088514  0.8060577173970985 19.1479338413530478   F   F   F
 11.2216720687574085  3.2360887361981998 19.1472930423715262   F   F   F
  9.8181623136354883  0.8052780492103665 19.1480074980739836   F   F   F
 11.2143439279999821  8.0932637003159158 12.2892549360000594   F   F   F
  9.8125439280000233  5.6652748782657945 12.2892549360000594   F   F   F
 14.0179439279999833  8.0932637003159158 12.2892549360000594   F   F   F
 12.6161439279999428  5.6652748782657945 12.2892549360000594   F   F   F
 14.0180560719999772  6.4746692319844659 14.5781801599999881   F   F   F
 15.4198560720000568  8.9026580540345179 14.5781801599999881   F   F   F
 11.2144560719999777  6.4746692319844659 14.5781801599999881   F   F   F
 12.6162560720000574  8.9026580540345179 14.5781801599999881   F   F   F
 11.2138126170726693  4.8568692239968483 16.8478243620771195   F   F   F
 12.6154546447523668  7.2847362956223494 16.8465409168378883   F   F   F
  2.8033004673738926  4.8554477551012445 16.8465954749856870   F   F   F
  4.2057339585215558  7.2851294263383970 16.8469553944055477   F   F   F
 11.2151856246818262  8.0944931252649397 19.1494724418481326   F   F   F
  9.8140909739405267  5.6765298471816497 19.1475059153515339   F   F   F
 14.0169024246925655  8.0953056150138494 19.1486418675948080   F   F   F
 12.6167340595736341  5.6672123647733574 19.1485053035076014   F   F   F
  8.4137775589456325  3.2301577078309194 20.8482507953020786   T   T   T
