Pt                                      
   1.00000000000000     
    11.2143591840627952    0.0000000000000000    0.0000000000000000
     5.6071786644696973    9.7119196343351284    0.0000000000000000
     0.0000000000000000    0.0000000000000000   31.4456079504766493
   Pt
    64
Selective dynamics
Direct
  0.0833333055905427  0.3333333411716950  0.3908056601795380   F   F   F
  0.0833333051675709  0.0833333421488334  0.3908056604662136   F   F   F
  0.3333333051810854  0.3333333439064887  0.3908056609450199   F   F   F
  0.3333333064933797  0.0833333407089185  0.3908056607145625   F   F   F
  0.4166666111986856  0.1666666831556824  0.4636018864526079   F   F   F
  0.4166666107757138  0.4166666841328208  0.4636018867392906   F   F   F
  0.1666666107892283  0.1666666858904762  0.4636018872180898   F   F   F
  0.1666666121015226  0.4166666826928989  0.4636018869876395   F   F   F
  0.2499978054901257  0.0000095611923304  0.5357374024662093   T   T   T
  0.2499989744722950  0.2499944312785679  0.5357370229806158   T   T   T
  0.5000032940131290  0.0000007288266378  0.5357290591982491   T   T   T
  0.5000095103272446  0.2499912567116614  0.5357467423302397   T   T   T
  0.0833054911632960  0.3333830661112248  0.6090094404474139   T   T   T
  0.0833047033367782  0.0833138482045497  0.6090093551633461   T   T   T
  0.3333315026287282  0.3333216592501931  0.6090160478029312   T   T   T
  0.3333866059272478  0.0833081770866844  0.6090135734523664   T   T   T
  0.0833333055905427  0.8333333411716950  0.3908056601795380   F   F   F
  0.0833333051675709  0.5833333421488334  0.3908056604662136   F   F   F
  0.3333333051810854  0.8333333439064887  0.3908056609450199   F   F   F
  0.3333333064933797  0.5833333407089185  0.3908056607145625   F   F   F
  0.4166666111986856  0.6666666831556824  0.4636018864526079   F   F   F
  0.4166666107757138  0.9166666841328208  0.4636018867392906   F   F   F
  0.1666666107892283  0.6666666858904762  0.4636018872180898   F   F   F
  0.1666666121015226  0.9166666826928989  0.4636018869876395   F   F   F
  0.2500095812454313  0.5000061428184593  0.5357452306396940   T   T   T
  0.2499941406774030  0.7499982250235609  0.5357483720834477   T   T   T
  0.5000017738917475  0.4999982495177117  0.5357359269365575   T   T   T
  0.4999954311842476  0.7499997591512239  0.5357406810738017   T   T   T
  0.0832961095127606  0.8333980281618153  0.6090194714036704   T   T   T
  0.0832970135853782  0.5833041713644557  0.6090194817395784   T   T   T
  0.3333317840822765  0.8333458615580741  0.6090158598180219   T   T   T
  0.3333861821417322  0.5833056584445024  0.6090205627290245   T   T   T
  0.5833333055905427  0.3333333411716950  0.3908056601795380   F   F   F
  0.5833333051675709  0.0833333421488334  0.3908056604662136   F   F   F
  0.8333333051810854  0.3333333439064887  0.3908056609450199   F   F   F
  0.8333333064933797  0.0833333407089185  0.3908056607145625   F   F   F
  0.9166666111986856  0.1666666831556824  0.4636018864526079   F   F   F
  0.9166666107757138  0.4166666841328208  0.4636018867392906   F   F   F
  0.6666666107892283  0.1666666858904762  0.4636018872180898   F   F   F
  0.6666666121015226  0.4166666826928989  0.4636018869876395   F   F   F
  0.7499946154091685  0.0000062968496244  0.5357456081903130   T   T   T
  0.7499968377454580  0.2499930612846291  0.5357414681777314   T   T   T
 -0.0000026407859538  0.0000010859415590  0.5357284313475472   T   T   T
  0.0000083273475912  0.2499961814207707  0.5357320464790636   T   T   T
  0.5833148589028512  0.3333766955976096  0.6090176350638202   T   T   T
  0.5833069280942623  0.0833000671864222  0.6090207075904577   T   T   T
  0.8333422731551903  0.3333284550303016  0.6090089968843689   T   T   T
  0.8333882446420998  0.0833057129599075  0.6090166931988326   T   T   T
  0.5833333055905427  0.8333333411716950  0.3908056601795380   F   F   F
  0.5833333051675709  0.5833333421488334  0.3908056604662136   F   F   F
  0.8333333051810854  0.8333333439064887  0.3908056609450199   F   F   F
  0.8333333064933797  0.5833333407089185  0.3908056607145625   F   F   F
  0.9166666111986856  0.6666666831556824  0.4636018864526079   F   F   F
  0.9166666107757138  0.9166666841328208  0.4636018867392906   F   F   F
  0.6666666107892283  0.6666666858904762  0.4636018872180898   F   F   F
  0.6666666121015226  0.9166666826928989  0.4636018869876395   F   F   F
  0.7499979072690296  0.5000089326821878  0.5357385802146863   T   T   T
  0.7499959879410079  0.7500004210712499  0.5357425348640457   T   T   T
 -0.0000007712861960  0.5000024608391539  0.5357252618351162   T   T   T
  0.0000025500722984  0.7499987241106055  0.5357472421154654   T   T   T
  0.5833079155633980  0.8333940320477037  0.6090206038549333   T   T   T
  0.5833158884805785  0.5833071237774310  0.6090174569577519   T   T   T
  0.8333260813378550  0.8333363323410898  0.6090220259303866   T   T   T
  0.8333900573052427  0.5833055327955526  0.6090165268774702   T   T   T
 
  0.00000000E+00  0.00000000E+00  0.00000000E+00
  0.00000000E+00  0.00000000E+00  0.00000000E+00
  0.00000000E+00  0.00000000E+00  0.00000000E+00
  0.00000000E+00  0.00000000E+00  0.00000000E+00
  0.00000000E+00  0.00000000E+00  0.00000000E+00
  0.00000000E+00  0.00000000E+00  0.00000000E+00
  0.00000000E+00  0.00000000E+00  0.00000000E+00
  0.00000000E+00  0.00000000E+00  0.00000000E+00
  0.00000000E+00  0.00000000E+00  0.00000000E+00
  0.00000000E+00  0.00000000E+00  0.00000000E+00
  0.00000000E+00  0.00000000E+00  0.00000000E+00
  0.00000000E+00  0.00000000E+00  0.00000000E+00
  0.00000000E+00  0.00000000E+00  0.00000000E+00
  0.00000000E+00  0.00000000E+00  0.00000000E+00
  0.00000000E+00  0.00000000E+00  0.00000000E+00
  0.00000000E+00  0.00000000E+00  0.00000000E+00
  0.00000000E+00  0.00000000E+00  0.00000000E+00
  0.00000000E+00  0.00000000E+00  0.00000000E+00
  0.00000000E+00  0.00000000E+00  0.00000000E+00
  0.00000000E+00  0.00000000E+00  0.00000000E+00
  0.00000000E+00  0.00000000E+00  0.00000000E+00
  0.00000000E+00  0.00000000E+00  0.00000000E+00
  0.00000000E+00  0.00000000E+00  0.00000000E+00
  0.00000000E+00  0.00000000E+00  0.00000000E+00
  0.00000000E+00  0.00000000E+00  0.00000000E+00
  0.00000000E+00  0.00000000E+00  0.00000000E+00
  0.00000000E+00  0.00000000E+00  0.00000000E+00
  0.00000000E+00  0.00000000E+00  0.00000000E+00
  0.00000000E+00  0.00000000E+00  0.00000000E+00
  0.00000000E+00  0.00000000E+00  0.00000000E+00
  0.00000000E+00  0.00000000E+00  0.00000000E+00
  0.00000000E+00  0.00000000E+00  0.00000000E+00
  0.00000000E+00  0.00000000E+00  0.00000000E+00
  0.00000000E+00  0.00000000E+00  0.00000000E+00
  0.00000000E+00  0.00000000E+00  0.00000000E+00
  0.00000000E+00  0.00000000E+00  0.00000000E+00
  0.00000000E+00  0.00000000E+00  0.00000000E+00
  0.00000000E+00  0.00000000E+00  0.00000000E+00
  0.00000000E+00  0.00000000E+00  0.00000000E+00
  0.00000000E+00  0.00000000E+00  0.00000000E+00
  0.00000000E+00  0.00000000E+00  0.00000000E+00
  0.00000000E+00  0.00000000E+00  0.00000000E+00
  0.00000000E+00  0.00000000E+00  0.00000000E+00
  0.00000000E+00  0.00000000E+00  0.00000000E+00
  0.00000000E+00  0.00000000E+00  0.00000000E+00
  0.00000000E+00  0.00000000E+00  0.00000000E+00
  0.00000000E+00  0.00000000E+00  0.00000000E+00
  0.00000000E+00  0.00000000E+00  0.00000000E+00
  0.00000000E+00  0.00000000E+00  0.00000000E+00
  0.00000000E+00  0.00000000E+00  0.00000000E+00
  0.00000000E+00  0.00000000E+00  0.00000000E+00
  0.00000000E+00  0.00000000E+00  0.00000000E+00
  0.00000000E+00  0.00000000E+00  0.00000000E+00
  0.00000000E+00  0.00000000E+00  0.00000000E+00
  0.00000000E+00  0.00000000E+00  0.00000000E+00
  0.00000000E+00  0.00000000E+00  0.00000000E+00
  0.00000000E+00  0.00000000E+00  0.00000000E+00
  0.00000000E+00  0.00000000E+00  0.00000000E+00
  0.00000000E+00  0.00000000E+00  0.00000000E+00
  0.00000000E+00  0.00000000E+00  0.00000000E+00
  0.00000000E+00  0.00000000E+00  0.00000000E+00
  0.00000000E+00  0.00000000E+00  0.00000000E+00
  0.00000000E+00  0.00000000E+00  0.00000000E+00
  0.00000000E+00  0.00000000E+00  0.00000000E+00
