&CONTROL
 calculation = 'relax',
 forc_conv_thr = 0.1,
 outdir = './output/'
 pseudo_dir = '/home/mini21k/QE/Potential/'
 /
&SYSTEM
 ibrav = 0,
 nat = 24,
 ntyp = 1,
 ecutwfc = 30,
 ecutrho = 240,
 occupations = 'smearing',
 degauss = 0.003
 /
&ELECTRONS
 conv_thr = 1e-4,
 /
&IONS
 /
CELL_PARAMETERS angstrom
     5.7275649276110352    0.0000000000000000    0.0000000000000000
     2.8637824638055176    4.9602167291359347    0.0000000000000000
     0.0000000000000000    0.0000000000000000    21.69134295108990
ATOMIC_SPECIES
Al 26.9815385 Al.pbe-n-kjpaw_psl.1.0.0.UPF
ATOMIC_POSITIONS angstrom
Al	1.43189123190275	0.82670278818932	0.00000000000000	0 0 0
Al	4.29567369570827	0.82670278818932	0.00000000000000	0 0 0
Al	2.86378246380551	3.30681115275728	0.00000000000000	0 0 0
Al	5.72756492761103	3.30681115275728	0.00000000000000	0 0 0
Al	0.00000000000000	1.65340557637864	2.33826859021798	
Al	2.86378246380551	1.65340557637864	2.33826859021798	
Al	1.43189123190275	4.13351394094661	2.33826859021798	
Al	4.29567369570827	4.13351394094661	2.33826859021798	
Al	0.00000000000000	0.00000000000000	4.67653718043596	
Al	2.86378246380551	0.00000000000000	4.67653718043596	
Al	1.43189123190275	2.48010836456796	4.67653718043596	
Al	4.29567369570827	2.48010836456796	4.67653718043596	
Al	1.43189123190275	0.82670278818932	7.01480577065390	
Al	4.29567369570827	0.82670278818932	7.01480577065390	
Al	2.86378246380551	3.30681115275728	7.01480577065390	
Al	5.72756492761103	3.30681115275728	7.01480577065390	
Al	0.00000000000000	1.65340557637864	9.35307436087190	
Al	2.86378246380551	1.65340557637864	9.35307436087190	
Al	1.43189123190275	4.13351394094661	9.35307436087190	
Al	4.29567369570827	4.13351394094661	9.35307436087190	
Al	0.00000000000000	0.00000000000000	11.69134295108990	
Al	2.86378246380551	0.00000000000000	11.69134295108990	
Al	1.43189123190275	2.48010836456796	11.69134295108990	
Al	4.29567369570827	2.48010836456796	11.69134295108990		
K_POINTS automatic
3 3 1 0 0 0
