&CONTROL
 calculation = 'relax',
 forc_conv_thr = 0.1,
 outdir = './output/'
 pseudo_dir = '/home/mini21k/QE/Potential/'
 /
&SYSTEM
 ibrav = 0,
 nat = 20,
 ntyp = 1,
 ecutwfc = 30,
 ecutrho = 240,
 occupations = 'smearing',
 degauss = 0.003
 /
&ELECTRONS
 conv_thr = 1e-4,
 /
&IONS
 /
CELL_PARAMETERS angstrom
     5.7275649276110352    0.0000000000000000    0.0000000000000000
     2.8637824638055176    4.9602167291359347    0.0000000000000000
     0.0000000000000000    0.0000000000000000    19.353074360872
ATOMIC_SPECIES
Al 26.9815385 Al.pbe-n-kjpaw_psl.1.0.0.UPF
ATOMIC_POSITIONS angstrom
Al	0.000000000000	1.653405576379	0.000000000000	0 0 0
Al	2.863782463806	1.653405576379	0.000000000000	0 0 0
Al	1.431891231903	4.133513940947	0.000000000000	0 0 0
Al	4.295673695708	4.133513940947	0.000000000000	0 0 0
Al	0.000000000000	0.000000000000	2.338268590218	
Al	2.863782463806	0.000000000000	2.338268590218	
Al	1.431891231903	2.480108364568	2.338268590218	
Al	4.295673695708	2.480108364568	2.338268590218	
Al	1.431891231903	0.826702788189	4.676537180436	
Al	4.295673695708	0.826702788189	4.676537180436	
Al	2.863782463806	3.306811152757	4.676537180436	
Al	5.727564927611	3.306811152757	4.676537180436	
Al	0.000000000000	1.653405576379	7.014805770654	
Al	2.863782463806	1.653405576379	7.014805770654	
Al	1.431891231903	4.133513940947	7.014805770654	
Al	4.295673695708	4.133513940947	7.014805770654	
Al	0.000000000000	0.000000000000	9.353074360872	
Al	2.863782463806	0.000000000000	9.353074360872	
Al	1.431891231903	2.480108364568	9.353074360872	
Al	4.295673695708	2.480108364568	9.353074360872	
K_POINTS automatic
3 3 1 0 0 0
