Pt  O  C  H 
 1.0000000000000000
    11.2143999999999995    0.0000000000000000    0.0000000000000000
     5.6072000000000006    9.7119552882002083    0.0000000000000000
     0.0000000000000000    0.0000000000000000   31.4455999999999989
 Pt  O   C   H  
  64   1   1   1
Selective dynamics
Cartesian
  2.8035439279999430  3.2372860562157419 12.2892549360000594   F   F   F
  1.4017439279999429  0.8092972341656903 12.2892549360000594   F   F   F
  5.6071439279999424  3.2372860562157419 12.2892549360000594   F   F   F
  4.2053439279999427  0.8092972341656903 12.2892549360000594   F   F   F
  5.6072560720000570  1.6186915878843617 14.5781801599999881   F   F   F
  7.0090560720000576  4.0466804099344138 14.5781801599999881   F   F   F
  2.8036560720000572  1.6186915878843617 14.5781801599999881   F   F   F
  4.2054560720000573  4.0466804099344138 14.5781801599999881   F   F   F
  2.8068426706027698  0.0071662778367447 16.8417015154695164   F   F   F
  4.2178338415445564  2.4355786151527834 16.8363698126549899   F   F   F
  5.6172529127768573  0.0178349329797573 16.8416209835347352   F   F   F
  7.0417854099895791  2.4563848850336507 16.8986936466880735   F   F   F
  2.8154507621555886  3.2548183291133510 19.1431979691936327   F   F   F
  1.4111380052015932  0.8350195607266000 19.1431220272296869   F   F   F
  5.6064721840272709  3.2593378484599875 19.1443051059697176   F   F   F
  4.2203268186912597  0.8332433760584491 19.1421441913876684   F   F   F
  5.6071439279999833  8.0932637003159158 12.2892549360000594   F   F   F
  4.2053439279999427  5.6652748782657945 12.2892549360000594   F   F   F
  8.4107439279999827  8.0932637003159158 12.2892549360000594   F   F   F
  7.0089439280000221  5.6652748782657945 12.2892549360000594   F   F   F
  8.4108560720000582  6.4746692319844659 14.5781801599999881   F   F   F
  9.8126560720000580  8.9026580540345179 14.5781801599999881   F   F   F
  5.6072560720000579  6.4746692319844659 14.5781801599999881   F   F   F
  7.0090560720000576  8.9026580540345179 14.5781801599999881   F   F   F
  5.6097124266815594  4.8644350977695057 16.8447436990316533   F   F   F
  7.0142571519868442  7.2868168970437930 16.8348460097209269   F   F   F
  8.4161936668229380  4.8394908878761846 16.8999710752264427   F   F   F
  9.8124134379129870  7.2849347644857447 16.8386645026005723   F   F   F
  5.6214440589341903  8.1200514183759687 19.1435380899753689   F   F   F
  4.2122268074486868  5.6892243628030936 19.1429966824087252   F   F   F
  8.4217984256094880  8.1192831013140552 19.1424334348799015   F   F   F
  7.0085331056462570  5.7058739240675225 19.1406836951220640   F   F   F
  8.4107439280000218  3.2372860562157419 12.2892549360000594   F   F   F
  7.0089439279999421  0.8092972341656903 12.2892549360000594   F   F   F
 11.2143439279999431  3.2372860562157419 12.2892549360000594   F   F   F
  9.8125439279999433  0.8092972341656903 12.2892549360000594   F   F   F
 11.2144560720000577  1.6186915878843617 14.5781801599999881   F   F   F
 12.6162560719999775  4.0466804099344138 14.5781801599999881   F   F   F
  8.4108560720000582  1.6186915878843617 14.5781801599999881   F   F   F
  9.8126560720000580  4.0466804099344138 14.5781801599999881   F   F   F
  8.4133155941551667  0.0124870118991491 16.8479962201055393   F   F   F
  9.7913419990092745  2.4559722796085763 16.8967037963566966   F   F   F
 11.2113572696969825  0.0170549458045035 16.8403300710924135   F   F   F
 12.6129409030150121  2.4333413303962810 16.8345973285965052   F   F   F
  8.4189683075925910  3.2797157703919702 19.4534160957536422   F   F   F
  7.0192516496395179  0.8279548947625643 19.1526854681516809   F   F   F
 11.2419006990247183  3.2607950261321261 19.1424746165999728   F   F   F
  9.8284137293715048  0.8271183708301756 19.1485873834437861   F   F   F
 11.2143439279999821  8.0932637003159158 12.2892549360000594   F   F   F
  9.8125439280000233  5.6652748782657945 12.2892549360000594   F   F   F
 14.0179439279999833  8.0932637003159158 12.2892549360000594   F   F   F
 12.6161439279999428  5.6652748782657945 12.2892549360000594   F   F   F
 14.0180560719999772  6.4746692319844659 14.5781801599999881   F   F   F
 15.4198560720000568  8.9026580540345179 14.5781801599999881   F   F   F
 11.2144560719999777  6.4746692319844659 14.5781801599999881   F   F   F
 12.6162560720000574  8.9026580540345179 14.5781801599999881   F   F   F
 11.2179754617286402  4.8644262979767481 16.8475797712818576   F   F   F
 12.6173903006075001  7.2941352580405256 16.8470697048522311   F   F   F
  2.8058709895165319  4.8603148095777033 16.8453783609128998   F   F   F
  4.2085003491953721  7.2955423120913920 16.8470816843608908   F   F   F
 11.2225533195250211  8.1193648543629440 19.1442559172015088   F   F   F
  9.8328958253405450  5.7052554203846482 19.1509761003595251   F   F   F
 14.0284455326681243  8.1184769141341135 19.1467115836162804   F   F   F
 12.6308963899665585  5.6902958287617293 19.1459094344887895   F   F   F
  7.5289173908540956  3.7338593197339938 22.1388240980721065   T   T   T
  8.4432961811953930  3.3960506751882833 21.4341519092820860   T   T   T
  9.4451871097330447  3.1115307075672205 21.8369160320066129   T   T   T
