Pt                                      
   1.00000000000000     
     3.9648746443462106   -0.0000000804160218    0.0000000077399944
    -0.0000000803929834    3.9648747609751060    0.0000003237977963
     0.0000000077217311    0.0000003237600928    3.9648747968279334
   Pt
     4
Direct
  0.0000000008340758  0.0000000055332047 -0.0000000013026941
  0.0000000024034299  0.4999999980828270  0.5000000014126305
  0.4999999981478709 -0.0000000034415005  0.4999999998428451
  0.4999999986146234  0.4999999998254688  0.0000000000472185
 
  0.00000000E+00  0.00000000E+00  0.00000000E+00
  0.00000000E+00  0.00000000E+00  0.00000000E+00
  0.00000000E+00  0.00000000E+00  0.00000000E+00
  0.00000000E+00  0.00000000E+00  0.00000000E+00
