Pt 
 1.0000000000000000
     3.9431503600000002    0.0000000000000000    0.0000000000000000
     0.0000000000000000    3.9431503600000002    0.0000000000000000
     0.0000000000000000    0.0000000000000000    3.9431503600000002
 Pt 
   4
Cartesian
  0.0000000000000000  0.0000000000000000  0.0000000000000000
  0.0000000000000000  1.9715751800000001  1.9715751800000001
  1.9715751800000001  0.0000000000000000  1.9715751800000001
  1.9715751800000001  1.9715751800000001  0.0000000000000000
