Pt 
 1.0000000000000000
    11.2143591840627952    0.0000000000000000    0.0000000000000000
     5.6071786644696973    9.7119196343351284    0.0000000000000000
     0.0000000000000000    0.0000000000000000   31.4456079504766493
 Pt 
  64
Selective dynamics
Cartesian
  2.8035892196619678  3.2373066209039476 12.2891215748329401   F   F   F
  1.4017945542801471  0.8093267218100272 12.2891215838477201   F   F   F
  5.6071790264203019  3.2373066474640169 12.2891215989039022   F   F   F
  4.2053843570900504  0.8093267078256692 12.2891215916572332   F   F   F
  5.6071789078567997  1.6186534325291897 14.5782431664901715   F   F   F
  7.0089735747098274  4.0466333506028338 14.5782431755049515   F   F   F
  2.8035891225837348  1.6186534590892594 14.5782431905611336   F   F   F
  4.2053837854883307  4.0466333366184752 14.5782431833144663   F   F   F
  2.8035890040202331  0.0000002441544325 16.8673647581474064   T   T   T
  4.2053836708732595  2.4279801622280748 16.8673647671621829   T   T   T
  5.6071788107785636  0.0000002707145010 16.8673647822183668   T   T   T
  7.0089734736831639  2.4279801482437176 16.8673647749716977   T   T   T
  2.8035884324185130  3.2373068729472387 19.1564863498046343   T   T   T
  1.4017937670366907  0.8093269738533175 19.1564863588194143   T   T   T
  5.6071782391768474  3.2373068995073067 19.1564863738756017   T   T   T
  4.2053835698465942  0.8093269598689609 19.1564863666289327   T   T   T
  5.6071785518968165  8.0932664380715114 12.2891215748329401   F   F   F
  4.2053838865149960  5.6652865389775915 12.2891215838477201   F   F   F
  8.4107683586551509  8.0932664646315811 12.2891215989039022   F   F   F
  7.0089736893248986  5.6652865249932329 12.2891215916572332   F   F   F
  8.4107682400916488  6.4746132496967537 14.5782431664901715   F   F   F
  9.8125629069446756  8.9025931677703980 14.5782431755049515   F   F   F
  5.6071784548185839  6.4746132762568234 14.5782431905611336   F   F   F
  7.0089731177231798  8.9025931537860394 14.5782431833144663   F   F   F
  5.6071783362550818  4.8559600613219969 16.8673647581474064   T   T   T
  7.0089730031081086  7.2839399793956385 16.8673647671621829   T   T   T
  8.4107681430134118  4.8559600878820648 16.8673647822183668   T   T   T
  9.8125628059180130  7.2839399654112817 16.8673647749716977   T   T   T
  5.6071777646533612  8.0932666901148025 19.1564863498046343   T   T   T
  4.2053830992715397  5.6652867910208817 19.1564863588194143   T   T   T
  8.4107675714116965  8.0932667166748704 19.1564863738756017   T   T   T
  7.0089729020814424  5.6652867770365249 19.1564863666289327   T   T   T
  8.4107688116933659  3.2373066209039476 12.2891215748329401   F   F   F
  7.0089741463115445  0.8093267218100272 12.2891215838477201   F   F   F
 11.2143586184516995  3.2373066474640169 12.2891215989039022   F   F   F
  9.8125639491214471  0.8093267078256692 12.2891215916572332   F   F   F
 11.2143584998881973  1.6186534325291897 14.5782431664901715   F   F   F
 12.6161531667412241  4.0466333506028338 14.5782431755049515   F   F   F
  8.4107687146151324  1.6186534590892594 14.5782431905611336   F   F   F
  9.8125633775197283  4.0466333366184752 14.5782431833144663   F   F   F
  8.4107685960516303  0.0000002441544325 16.8673647581474064   T   T   T
  9.8125632629046571  2.4279801622280748 16.8673647671621829   T   T   T
 11.2143584028099603  0.0000002707145010 16.8673647822183668   T   T   T
 12.6161530657145615  2.4279801482437176 16.8673647749716977   T   T   T
  8.4107680244499115  3.2373068729472387 19.1564863498046343   T   T   T
  7.0089733590680883  0.8093269738533175 19.1564863588194143   T   T   T
 11.2143578312082450  3.2373068995073067 19.1564863738756017   T   T   T
  9.8125631618779927  0.8093269598689609 19.1564863666289327   T   T   T
 11.2143581439282141  8.0932664380715114 12.2891215748329401   F   F   F
  9.8125634785463944  5.6652865389775915 12.2891215838477201   F   F   F
 14.0179479506865476  8.0932664646315811 12.2891215989039022   F   F   F
 12.6161532813562971  5.6652865249932329 12.2891215916572332   F   F   F
 14.0179478321230455  6.4746132496967537 14.5782431664901715   F   F   F
 15.4197424989760741  8.9025931677703980 14.5782431755049515   F   F   F
 11.2143580468499806  6.4746132762568234 14.5782431905611336   F   F   F
 12.6161527097545765  8.9025931537860394 14.5782431833144663   F   F   F
 11.2143579282864803  4.8559600613219969 16.8673647581474064   T   T   T
 12.6161525951395070  7.2839399793956385 16.8673647671621829   T   T   T
 14.0179477350448103  4.8559600878820648 16.8673647822183668   T   T   T
 15.4197423979494097  7.2839399654112817 16.8673647749716977   T   T   T
 11.2143573566847596  8.0932666901148025 19.1564863498046343   T   T   T
  9.8125626913029365  5.6652867910208817 19.1564863588194143   T   T   T
 14.0179471634430932  8.0932667166748704 19.1564863738756017   T   T   T
 12.6161524941128409  5.6652867770365249 19.1564863666289327   T   T   T
