auBulk                                  
   1.0000000000000000     
    15.0000000000000000    0.0000000000000000    0.0000000000000000
     0.0000000000000000   15.0000000000000000    0.0000000000000000
     0.0000000000000000    0.0000000000000000   15.0000000000000000
   H 
     2
Selective dynamics
Direct
  0.3349652740631693  0.3333333333333357  0.3333333333333357   T   T   T
  0.3850347259368296  0.3333333333333357  0.3333333333333357   T   T   T

  0.00000000E+00  0.00000000E+00  0.00000000E+00
  0.00000000E+00  0.00000000E+00  0.00000000E+00
