&CONTROL
 calculation = 'relax',
 prefix = 'al',
 etot_conv_thr = 0.0001,
 forc_conv_thr = 0.001,
 pseudo_dir = '../../pseudo'
/
&SYSTEM
 ibrav = 2,
 celldm(1) = 7.63075,
 nat = 4,
 ntyp = 1,
 occupations = 'smearing',
 smearing = 'gauss',
 degauss = 0.01,
 ecutwfc = 40,
 ecutrho = 320
 /
&ELECTRONS
 electron_maxstep = 80
/
&IONS
 ion_dynamics = 'bfgs'
/
ATOMIC_SPECIES
  Al 26.981539 Al.pbe-n-kjpaw_psl.1.0.0.UPF

ATOMIC_POSITIONS (angstrom)
  Al   0.000000   0.080000   0.000000 0 1 0
  Al   0.000000   2.020650   2.020650 0 0 0
  Al   2.020650   0.000000   2.020650 0 0 0
  Al   2.020650   2.020650   0.000000 0 0 0

K_POINTS (automatic)
  16 16 16 0 0 0