Pt  O  C 
 1.0000000000000000
    11.2143999999999995    0.0000000000000000    0.0000000000000000
     5.6072000000000006    9.7119552882002083    0.0000000000000000
     0.0000000000000000    0.0000000000000000   31.4455999999999989
 Pt  O   C  
  64   1   1
Selective dynamics
Cartesian
  2.8035439279999430  3.2372860562157419 12.2892549360000594   F   F   F
  1.4017439279999429  0.8092972341656903 12.2892549360000594   F   F   F
  5.6071439279999424  3.2372860562157419 12.2892549360000594   F   F   F
  4.2053439279999427  0.8092972341656903 12.2892549360000594   F   F   F
  5.6072560720000570  1.6186915878843617 14.5781801599999881   F   F   F
  7.0090560720000576  4.0466804099344138 14.5781801599999881   F   F   F
  2.8036560720000572  1.6186915878843617 14.5781801599999881   F   F   F
  4.2054560720000573  4.0466804099344138 14.5781801599999881   F   F   F
  2.8013376268717711  0.0054192418165172 16.8450418864223757   F   F   F
  4.2089056987078202  2.4288164987614467 16.8325950297638691   F   F   F
  5.6078327463938971  0.0095120110147634 16.8346575678504955   F   F   F
  7.0277069377160704  2.4494020658866420 16.9065735845063472   F   F   F
  2.7983504955857730  3.2422808512544190 19.1470016219502170   F   F   F
  1.4003009774247746  0.8208416886855815 19.1482305467643883   F   F   F
  5.5411904126500975  3.2513833520976081 19.1423465097529970   F   F   F
  4.1982526796862301  0.8181589805902373 19.1505298747491217   F   F   F
  5.6071439279999833  8.0932637003159158 12.2892549360000594   F   F   F
  4.2053439279999427  5.6652748782657945 12.2892549360000594   F   F   F
  8.4107439279999827  8.0932637003159158 12.2892549360000594   F   F   F
  7.0089439280000221  5.6652748782657945 12.2892549360000594   F   F   F
  8.4108560720000582  6.4746692319844659 14.5781801599999881   F   F   F
  9.8126560720000580  8.9026580540345179 14.5781801599999881   F   F   F
  5.6072560720000579  6.4746692319844659 14.5781801599999881   F   F   F
  7.0090560720000576  8.9026580540345179 14.5781801599999881   F   F   F
  5.6047248988146503  4.8597100337017141 16.8457236906538590   F   F   F
  7.0094476698069741  7.2885190083511775 16.8311226896385691   F   F   F
  8.4073334075938515  4.8468019601288619 16.8936708480661864   F   F   F
  9.8086625225972384  7.2857750243850843 16.8324673727618013   F   F   F
  5.6051944694937825  8.1120986876045933 19.1464636899967253   F   F   F
  4.1895512156142019  5.6846502557113059 19.1481762223802008   F   F   F
  8.4070102624734631  8.1114067124494582 19.1463701502923129   F   F   F
  6.9709139328185499  5.7318612315620250 19.1339835620070424   F   F   F
  8.4107439280000218  3.2372860562157419 12.2892549360000594   F   F   F
  7.0089439279999421  0.8092972341656903 12.2892549360000594   F   F   F
 11.2143439279999431  3.2372860562157419 12.2892549360000594   F   F   F
  9.8125439279999433  0.8092972341656903 12.2892549360000594   F   F   F
 11.2144560720000577  1.6186915878843617 14.5781801599999881   F   F   F
 12.6162560719999775  4.0466804099344138 14.5781801599999881   F   F   F
  8.4108560720000582  1.6186915878843617 14.5781801599999881   F   F   F
  9.8126560720000580  4.0466804099344138 14.5781801599999881   F   F   F
  8.4090608439703054  0.0056337417681663 16.8466303132954778   F   F   F
  9.7782515420762497  2.4529773456131108 16.9203940647018527   F   F   F
 -0.0071355355883284  0.0151675054512273 16.8371069842179324   F   F   F
  1.3903775164162424  2.4314347425673617 16.8343902849988432   F   F   F
  8.4080446776466005  3.2545995535484393 19.3314091242759645   F   F   F
  6.9801607119901563  0.7783498269480147 19.1423654996761918   F   F   F
 11.2640428368249168  3.2508019467828073 19.1501085639343351   F   F   F
  9.8279160345220102  0.7799150742848043 19.1523776637151286   F   F   F
 11.2143439279999821  8.0932637003159158 12.2892549360000594   F   F   F
  9.8125439280000233  5.6652748782657945 12.2892549360000594   F   F   F
 14.0179439279999833  8.0932637003159158 12.2892549360000594   F   F   F
 12.6161439279999428  5.6652748782657945 12.2892549360000594   F   F   F
 14.0180560719999772  6.4746692319844659 14.5781801599999881   F   F   F
 15.4198560720000568  8.9026580540345179 14.5781801599999881   F   F   F
 11.2144560719999777  6.4746692319844659 14.5781801599999881   F   F   F
 12.6162560720000574  8.9026580540345179 14.5781801599999881   F   F   F
 11.2117721738456222  4.8589407308698069 16.8475207276212551   F   F   F
 12.6136503091954264  7.2882854130130728 16.8446313465276880   F   F   F
  2.8024460029530309  4.8560559454143597 16.8444056847375236   F   F   F
  4.2045757406410527  7.2894606205778691 16.8434670844237928   F   F   F
 11.2056523272914887  8.1084022858304934 19.1474038741401280   F   F   F
  9.8396756382422268  5.7271254239298166 19.1386222907599404   F   F   F
 14.0134306703183977  8.0996035820806078 19.1506031292017411   F   F   F
 12.6211240753580114  5.6830398813893410 19.1489583205127794   F   F   F
  8.1923374278460148  3.6661584926163111 22.2942515117731510   T   T   T
  8.2773416233893276  3.4916649485387068 21.1510934253347820   T   T   T
