Pt  O  C 
 1.0000000000000000
    11.2143999999999995    0.0000000000000000    0.0000000000000000
     5.6072000000000006    9.7119552882002083    0.0000000000000000
     0.0000000000000000    0.0000000000000000   31.4455999999999989
 Pt  O   C  
  64   1   1
Selective dynamics
Cartesian
  2.8035439280000003  3.2372860562157757 12.2892549359999990   F   F   F
  1.4017439280000001  0.8092972341657234 12.2892549359999990   F   F   F
  5.6071439280000002  3.2372860562157757 12.2892549359999990   F   F   F
  4.2053439280000005  0.8092972341657234 12.2892549359999990   F   F   F
  5.6072560720000002  1.6186915878843289 14.5781801600000023   F   F   F
  7.0090560719999999  4.0466804099343809 14.5781801600000023   F   F   F
  2.8036560720000003  1.6186915878843289 14.5781801600000023   F   F   F
  4.2054560720000005  4.0466804099343809 14.5781801600000023   F   F   F
  2.8035999999999999  0.0000000000000000 16.8674198400000037   T   T   T
  4.2054000000000000  2.4279888220500516 16.8674198400000037   T   T   T
  5.6071999999999997  0.0000000000000000 16.8674198400000037   T   T   T
  7.0090000000000003  2.4279888220500516 16.8674198400000037   T   T   T
  2.8035439280000003  3.2372860562157757 19.1563450639999999   T   T   T
  1.4017439280000001  0.8092972341657234 19.1563450639999999   T   T   T
  5.6071439280000002  3.2372860562157757 19.1563450639999999   T   T   T
  4.2053439280000005  0.8092972341657234 19.1563450639999999   T   T   T
  5.6071439280000011  8.0932637003158803 12.2892549359999990   F   F   F
  4.2053439280000005  5.6652748782658264 12.2892549359999990   F   F   F
  8.4107439280000005  8.0932637003158803 12.2892549359999990   F   F   F
  7.0089439280000017  5.6652748782658264 12.2892549359999990   F   F   F
  8.4108560719999996  6.4746692319844330 14.5781801600000023   F   F   F
  9.8126560720000011  8.9026580540344842 14.5781801600000023   F   F   F
  5.6072560720000002  6.4746692319844330 14.5781801600000023   F   F   F
  7.0090560720000008  8.9026580540344842 14.5781801600000023   F   F   F
  5.6072000000000015  4.8559776441001032 16.8674198400000037   T   T   T
  7.0090000000000003  7.2839664661501562 16.8674198400000037   T   T   T
  8.4108000000000001  4.8559776441001032 16.8674198400000037   T   T   T
  9.8125999999999998  7.2839664661501562 16.8674198400000037   T   T   T
  5.6071439280000011  8.0932637003158803 19.1563450639999999   T   T   T
  4.2053439280000005  5.6652748782658264 19.1563450639999999   T   T   T
  8.4107439280000005  8.0932637003158803 19.1563450639999999   T   T   T
  7.0089439280000017  5.6652748782658264 19.1563450639999999   T   T   T
  8.4107439280000023  3.2372860562157757 12.2892549359999990   F   F   F
  7.0089439279999999  0.8092972341657234 12.2892549359999990   F   F   F
 11.2143439279999999  3.2372860562157757 12.2892549359999990   F   F   F
  9.8125439279999984  0.8092972341657234 12.2892549359999990   F   F   F
 11.2144560719999991  1.6186915878843289 14.5781801600000023   F   F   F
 12.6162560719999988  4.0466804099343809 14.5781801600000023   F   F   F
  8.4108560719999996  1.6186915878843289 14.5781801600000023   F   F   F
  9.8126560719999993  4.0466804099343809 14.5781801600000023   F   F   F
  8.4108000000000001  0.0000000000000000 16.8674198400000037   T   T   T
  9.8125999999999998  2.4279888220500516 16.8674198400000037   T   T   T
  0.0000000000000000  0.0000000000000000 16.8674198400000037   T   T   T
  1.4017999999999999  2.4279888220500516 16.8674198400000037   T   T   T
  8.4107439280000023  3.2372860562157757 19.1563450639999999   T   T   T
  7.0089439279999999  0.8092972341657234 19.1563450639999999   T   T   T
 11.2143439279999999  3.2372860562157757 19.1563450639999999   T   T   T
  9.8125439279999984  0.8092972341657234 19.1563450639999999   T   T   T
 11.2143439279999999  8.0932637003158803 12.2892549359999990   F   F   F
  9.8125439280000020  5.6652748782658264 12.2892549359999990   F   F   F
 14.0179439279999993  8.0932637003158803 12.2892549359999990   F   F   F
 12.6161439279999996  5.6652748782658264 12.2892549359999990   F   F   F
 14.0180560719999985  6.4746692319844330 14.5781801600000023   F   F   F
 15.4198560720000000  8.9026580540344842 14.5781801600000023   F   F   F
 11.2144560719999991  6.4746692319844330 14.5781801600000023   F   F   F
 12.6162560720000005  8.9026580540344842 14.5781801600000023   F   F   F
 11.2144000000000013  4.8559776441001032 16.8674198400000037   T   T   T
 12.6162000000000010  7.2839664661501562 16.8674198400000037   T   T   T
  2.8036000000000025  4.8559776441001032 16.8674198400000037   T   T   T
  4.2054000000000009  7.2839664661501562 16.8674198400000037   T   T   T
 11.2143439279999999  8.0932637003158803 19.1563450639999999   T   T   T
  9.8125439280000020  5.6652748782658264 19.1563450639999999   T   T   T
 14.0179439279999993  8.0932637003158803 19.1563450639999999   T   T   T
 12.6161439279999996  5.6652748782658264 19.1563450639999999   T   T   T
  8.0108384240000010  4.0373569328577092 22.7317097839999995   T   T   T
  8.0108384240000010  4.0373569328577092 21.5814297359999969   T   T   T
