Pt                                      
   1.00000000000000     
    11.2143591840627952    0.0000000000000000    0.0000000000000000
     5.6071786644696973    9.7119196343351284    0.0000000000000000
     0.0000000000000000    0.0000000000000000   31.4456079504766493
   Pt
    64
Selective dynamics
Direct
  0.0833333055905427  0.3333333411716950  0.3908056601795380   F   F   F
  0.0833333051675709  0.0833333421488334  0.3908056604662136   F   F   F
  0.3333333051810854  0.3333333439064887  0.3908056609450199   F   F   F
  0.3333333064933797  0.0833333407089185  0.3908056607145625   F   F   F
  0.4166666111986856  0.1666666831556824  0.4636018864526079   F   F   F
  0.4166666107757138  0.4166666841328208  0.4636018867392906   F   F   F
  0.1666666107892283  0.1666666858904762  0.4636018872180898   F   F   F
  0.1666666121015226  0.4166666826928989  0.4636018869876395   F   F   F
  0.2499978053404679  0.0000095614511069  0.5357374019822401   T   T   T
  0.2499989743134466  0.2499944312731498  0.5357370226534512   T   T   T
  0.5000032936150437  0.0000007290987888  0.5357290592517748   T   T   T
  0.5000095100768481  0.2499912566242188  0.5357467424608300   T   T   T
  0.0833054916080880  0.3333830654578727  0.6090094403578658   T   T   T
  0.0833047042700706  0.0833138484897057  0.6090093550196560   T   T   T
  0.3333315017308308  0.3333216591396180  0.6090160476356283   T   T   T
  0.3333866049579948  0.0833081775031735  0.6090135731084041   T   T   T
  0.0833333055905427  0.8333333411716950  0.3908056601795380   F   F   F
  0.0833333051675709  0.5833333421488334  0.3908056604662136   F   F   F
  0.3333333051810854  0.8333333439064887  0.3908056609450199   F   F   F
  0.3333333064933797  0.5833333407089185  0.3908056607145625   F   F   F
  0.4166666111986856  0.6666666831556824  0.4636018864526079   F   F   F
  0.4166666107757138  0.9166666841328208  0.4636018867392906   F   F   F
  0.1666666107892283  0.6666666858904762  0.4636018872180898   F   F   F
  0.1666666121015226  0.9166666826928989  0.4636018869876395   F   F   F
  0.2500095810459818  0.5000061425969995  0.5357452304630695   T   T   T
  0.2499941404788674  0.7499982253466012  0.5357483717476540   T   T   T
  0.5000017736816437  0.4999982495669085  0.5357359264245491   T   T   T
  0.4999954309528044  0.7499997595217667  0.5357406806380901   T   T   T
  0.0832961104570985  0.8333980280469430  0.6090194716384225   T   T   T
  0.0832970140945065  0.5833041703883504  0.6090194820029396   T   T   T
  0.3333317838553574  0.8333458621924574  0.6090158591871166   T   T   T
  0.3333861818833061  0.5833056586984994  0.6090205621822279   T   T   T
  0.5833333055905427  0.3333333411716950  0.3908056601795380   F   F   F
  0.5833333051675709  0.0833333421488334  0.3908056604662136   F   F   F
  0.8333333051810854  0.3333333439064887  0.3908056609450199   F   F   F
  0.8333333064933797  0.0833333407089185  0.3908056607145625   F   F   F
  0.9166666111986856  0.1666666831556824  0.4636018864526079   F   F   F
  0.9166666107757138  0.4166666841328208  0.4636018867392906   F   F   F
  0.6666666107892283  0.1666666858904762  0.4636018872180898   F   F   F
  0.6666666121015226  0.4166666826928989  0.4636018869876395   F   F   F
  0.7499946155038741  0.0000062965889599  0.5357456091853751   T   T   T
  0.7499968381584686  0.2499930610898273  0.5357414684787700   T   T   T
 -0.0000026405151234  0.0000010859389282  0.5357284316468961   T   T   T
  0.0000083276987914  0.2499961813391769  0.5357320463119247   T   T   T
  0.5833148583359213  0.3333766961899413  0.6090176347639710   T   T   T
  0.5833069268894492  0.0833000675342067  0.6090207078306744   T   T   T
  0.8333422740599593  0.3333284550856978  0.6090089967835796   T   T   T
  0.8333882451993065  0.0833057132595893  0.6090166936551143   T   T   T
  0.5833333055905427  0.8333333411716950  0.3908056601795380   F   F   F
  0.5833333051675709  0.5833333421488334  0.3908056604662136   F   F   F
  0.8333333051810854  0.8333333439064887  0.3908056609450199   F   F   F
  0.8333333064933797  0.5833333407089185  0.3908056607145625   F   F   F
  0.9166666111986856  0.6666666831556824  0.4636018864526079   F   F   F
  0.9166666107757138  0.9166666841328208  0.4636018867392906   F   F   F
  0.6666666107892283  0.6666666858904762  0.4636018872180898   F   F   F
  0.6666666121015226  0.9166666826928989  0.4636018869876395   F   F   F
  0.7499979077960542  0.5000089324355155  0.5357385800846881   T   T   T
  0.7499959881252425  0.7500004210553829  0.5357425354478305   T   T   T
 -0.0000007710336016  0.5000024605722452  0.5357252618788678   T   T   T
  0.0000025499849090  0.7499987240909921  0.5357472428051814   T   T   T
  0.5833079146234820  0.8333940322159263  0.6090206036716830   T   T   T
  0.5833158882673262  0.5833071241759520  0.6090174562049722   T   T   T
  0.8333260815405032  0.8333363316893618  0.6090220267177661   T   T   T
  0.8333900577513170  0.5833055320125866  0.6090165269772975   T   T   T
 
  0.00000000E+00  0.00000000E+00  0.00000000E+00
  0.00000000E+00  0.00000000E+00  0.00000000E+00
  0.00000000E+00  0.00000000E+00  0.00000000E+00
  0.00000000E+00  0.00000000E+00  0.00000000E+00
  0.00000000E+00  0.00000000E+00  0.00000000E+00
  0.00000000E+00  0.00000000E+00  0.00000000E+00
  0.00000000E+00  0.00000000E+00  0.00000000E+00
  0.00000000E+00  0.00000000E+00  0.00000000E+00
  0.00000000E+00  0.00000000E+00  0.00000000E+00
  0.00000000E+00  0.00000000E+00  0.00000000E+00
  0.00000000E+00  0.00000000E+00  0.00000000E+00
  0.00000000E+00  0.00000000E+00  0.00000000E+00
  0.00000000E+00  0.00000000E+00  0.00000000E+00
  0.00000000E+00  0.00000000E+00  0.00000000E+00
  0.00000000E+00  0.00000000E+00  0.00000000E+00
  0.00000000E+00  0.00000000E+00  0.00000000E+00
  0.00000000E+00  0.00000000E+00  0.00000000E+00
  0.00000000E+00  0.00000000E+00  0.00000000E+00
  0.00000000E+00  0.00000000E+00  0.00000000E+00
  0.00000000E+00  0.00000000E+00  0.00000000E+00
  0.00000000E+00  0.00000000E+00  0.00000000E+00
  0.00000000E+00  0.00000000E+00  0.00000000E+00
  0.00000000E+00  0.00000000E+00  0.00000000E+00
  0.00000000E+00  0.00000000E+00  0.00000000E+00
  0.00000000E+00  0.00000000E+00  0.00000000E+00
  0.00000000E+00  0.00000000E+00  0.00000000E+00
  0.00000000E+00  0.00000000E+00  0.00000000E+00
  0.00000000E+00  0.00000000E+00  0.00000000E+00
  0.00000000E+00  0.00000000E+00  0.00000000E+00
  0.00000000E+00  0.00000000E+00  0.00000000E+00
  0.00000000E+00  0.00000000E+00  0.00000000E+00
  0.00000000E+00  0.00000000E+00  0.00000000E+00
  0.00000000E+00  0.00000000E+00  0.00000000E+00
  0.00000000E+00  0.00000000E+00  0.00000000E+00
  0.00000000E+00  0.00000000E+00  0.00000000E+00
  0.00000000E+00  0.00000000E+00  0.00000000E+00
  0.00000000E+00  0.00000000E+00  0.00000000E+00
  0.00000000E+00  0.00000000E+00  0.00000000E+00
  0.00000000E+00  0.00000000E+00  0.00000000E+00
  0.00000000E+00  0.00000000E+00  0.00000000E+00
  0.00000000E+00  0.00000000E+00  0.00000000E+00
  0.00000000E+00  0.00000000E+00  0.00000000E+00
  0.00000000E+00  0.00000000E+00  0.00000000E+00
  0.00000000E+00  0.00000000E+00  0.00000000E+00
  0.00000000E+00  0.00000000E+00  0.00000000E+00
  0.00000000E+00  0.00000000E+00  0.00000000E+00
  0.00000000E+00  0.00000000E+00  0.00000000E+00
  0.00000000E+00  0.00000000E+00  0.00000000E+00
  0.00000000E+00  0.00000000E+00  0.00000000E+00
  0.00000000E+00  0.00000000E+00  0.00000000E+00
  0.00000000E+00  0.00000000E+00  0.00000000E+00
  0.00000000E+00  0.00000000E+00  0.00000000E+00
  0.00000000E+00  0.00000000E+00  0.00000000E+00
  0.00000000E+00  0.00000000E+00  0.00000000E+00
  0.00000000E+00  0.00000000E+00  0.00000000E+00
  0.00000000E+00  0.00000000E+00  0.00000000E+00
  0.00000000E+00  0.00000000E+00  0.00000000E+00
  0.00000000E+00  0.00000000E+00  0.00000000E+00
  0.00000000E+00  0.00000000E+00  0.00000000E+00
  0.00000000E+00  0.00000000E+00  0.00000000E+00
  0.00000000E+00  0.00000000E+00  0.00000000E+00
  0.00000000E+00  0.00000000E+00  0.00000000E+00
  0.00000000E+00  0.00000000E+00  0.00000000E+00
  0.00000000E+00  0.00000000E+00  0.00000000E+00
