&CONTROL
calculation = 'relax'
pseudo_dir = '/home/cjw/pseudopotential/SSSP_1.1.2_PBE_efficiency'
disk_io = 'default'

/

&SYSTEM
ecutwfc =   60
ecutrho =   480
ibrav = 0
nosym = .true.
ntyp = 1
nat = 2
nspin = 2
starting_magnetization(1) = 0.5
occupations = 'smearing'
degauss = 0.002

/

&ELECTRONS

/

&IONS

/

ATOMIC_SPECIES
H 1.008 H.pbe-rrkjus_psl.1.0.0.UPF

K_POINTS automatic
1 1 1 0 0 0

CELL_PARAMETERS angstrom
20.00000000000000 0.00000000000000 0.00000000000000
0.00000000000000 20.00000000000000 0.00000000000000
0.00000000000000 0.00000000000000 20.00000000000000

ATOMIC_POSITIONS angstrom
H 10.0000000000 10.0000000000 10.3685830000 
H 10.0000000000 10.0000000000 9.6314170000 