 H                                      
   1.00000000000000     
    11.2143591840627952    0.0000000000000000    0.0000000000000000
     5.6071786644696973    9.7119196343351284    0.0000000000000000
     0.0000000000000000    0.0000000000000000   31.4456079504766493
   H 
     2
Direct
  0.1884417335365782  0.5148312512227520  0.1709447996324940
  0.1884409765465306  0.5148313053583777  0.1465876206573364
 
  0.00000000E+00  0.00000000E+00  0.00000000E+00
  0.00000000E+00  0.00000000E+00  0.00000000E+00
