 H 
 1.0000000000000000
    11.2143591840627952    0.0000000000000000    0.0000000000000000
     5.6071786644696973    9.7119196343351284    0.0000000000000000
     0.0000000000000000    0.0000000000000000   31.4456079504766493
 H  
   2
Cartesian
  5.0000000000000000  5.0000000000000000  5.3685830000000001
  5.0000000000000000  5.0000000000000000  4.6314169999999999
