Pt  O  C  H                             
   1.00000000000000     
    11.2143999999999995    0.0000000000000000    0.0000000000000000
     5.6072000000000006    9.7119552882002083    0.0000000000000000
     0.0000000000000000    0.0000000000000000   31.4455999999999989
   Pt   O    C    H 
    64     1     1     1
Selective dynamics
Direct
  0.0833299999999966  0.3333299999999966  0.3908100000000019   F   F   F
  0.0833299999999966  0.0833299999999966  0.3908100000000019   F   F   F
  0.3333299999999966  0.3333299999999966  0.3908100000000019   F   F   F
  0.3333299999999966  0.0833299999999966  0.3908100000000019   F   F   F
  0.4166700000000034  0.1666700000000034  0.4635999999999996   F   F   F
  0.4166700000000034  0.4166700000000034  0.4635999999999996   F   F   F
  0.1666700000000034  0.1666700000000034  0.4635999999999996   F   F   F
  0.1666700000000034  0.4166700000000034  0.4635999999999996   F   F   F
  0.2480991256146310  0.0012397473906721  0.5358840133835157   T   T   T
  0.2500418055745035  0.2500267916713649  0.5352118819597738   T   T   T
  0.4993631984243138  0.0010424866638031  0.5352018674466981   T   T   T
  0.5009516635460227  0.2519084229046765  0.5371781217759315   T   T   T
  0.0834062241801223  0.3368453657371754  0.6088008849537773   T   T   T
  0.0872863205422003  0.0825698976288369  0.6106690065882803   T   T   T
  0.3274968465381467  0.3342736897439467  0.6084367596287305   T   T   T
  0.3323312072430742  0.0846536737017876  0.6089182886071912   T   T   T
  0.0833299999999966  0.8333300000000037  0.3908100000000019   F   F   F
  0.0833299999999966  0.5833299999999966  0.3908100000000019   F   F   F
  0.3333299999999966  0.8333300000000037  0.3908100000000019   F   F   F
  0.3333300000000037  0.5833299999999966  0.3908100000000019   F   F   F
  0.4166700000000034  0.6666700000000034  0.4635999999999996   F   F   F
  0.4166700000000034  0.9166700000000034  0.4635999999999996   F   F   F
  0.1666700000000034  0.6666700000000034  0.4635999999999996   F   F   F
  0.1666700000000034  0.9166700000000034  0.4635999999999996   F   F   F
  0.2495919858532533  0.5004767822182471  0.5357438151204050   T   T   T
  0.2499304912249110  0.7504787779860980  0.5351925817927746   T   T   T
  0.5007884263925841  0.4986399457285256  0.5371481588048930   T   T   T
  0.4993238941055892  0.7503789678931495  0.5351864449144524   T   T   T
  0.0832755319865972  0.8324855743213989  0.6087319700737969   T   T   T
  0.0809194343280941  0.5859015811236523  0.6090077943615232   T   T   T
  0.3323089358748674  0.8354600363774439  0.6088719673411602   T   T   T
  0.3273732278815394  0.5906956054087031  0.6084111217649630   T   T   T
  0.5833300000000037  0.3333299999999966  0.3908100000000019   F   F   F
  0.5833299999999966  0.0833299999999966  0.3908100000000019   F   F   F
  0.8333299999999966  0.3333299999999966  0.3908100000000019   F   F   F
  0.8333299999999966  0.0833299999999966  0.3908100000000019   F   F   F
  0.9166700000000034  0.1666700000000034  0.4635999999999996   F   F   F
  0.9166699999999963  0.4166700000000034  0.4635999999999996   F   F   F
  0.6666700000000034  0.1666700000000034  0.4635999999999996   F   F   F
  0.6666700000000034  0.4166700000000034  0.4635999999999996   F   F   F
  0.7502603498361508  0.0011482762568315  0.5357964943707967   T   T   T
  0.7463822312406981  0.2525768947082727  0.5385055819434519   T   T   T
  0.9983384872484061  0.0023010163109482  0.5361339030902925   T   T   T
  0.9985337533348984  0.2501855375342269  0.5361262842211897   T   T   T
  0.5791259424320006  0.3369254845360874  0.6148113548121587   T   T   T
  0.5822627099135433  0.0801200775332144  0.6084749918325697   T   T   T
  0.8341751376536417  0.3401258061692973  0.6104365413652355   T   T   T
  0.8336129970884649  0.0788342814638511  0.6104389020136468   T   T   T
  0.5833299999999966  0.8333300000000037  0.3908100000000019   F   F   F
  0.5833300000000037  0.5833299999999966  0.3908100000000019   F   F   F
  0.8333299999999966  0.8333300000000037  0.3908100000000019   F   F   F
  0.8333299999999966  0.5833299999999966  0.3908100000000019   F   F   F
  0.9166699999999963  0.6666700000000034  0.4635999999999996   F   F   F
  0.9166700000000034  0.9166700000000034  0.4635999999999996   F   F   F
  0.6666699999999963  0.6666700000000034  0.4635999999999996   F   F   F
  0.6666700000000034  0.9166700000000034  0.4635999999999996   F   F   F
  0.7502832886902867  0.4996990604456922  0.5357872216051264   T   T   T
  0.7495181764406483  0.7507232427495252  0.5355161725797323   T   T   T
 -0.0002898726042448  0.5001769037355107  0.5355571572029711   T   T   T
 -0.0003879618774397  0.7508207328837101  0.5355048696486959   T   T   T
  0.5818448416345188  0.8353369698121765  0.6087388530386854   T   T   T
  0.5824299736596343  0.5902488743315143  0.6084685585089632   T   T   T
  0.8322624354271650  0.8340216920791660  0.6089329889463546   T   T   T
  0.8324130184679336  0.5863984850965026  0.6089706248043961   T   T   T
  0.5279917877451222  0.3660623659819974  0.7088610231074179   T   T   T
  0.5496665280438802  0.3537537925271322  0.6726122958172945   T   T   T
  0.9186553450728375  0.1672147051317911  0.6371129627160328   T   T   T
 
  0.00000000E+00  0.00000000E+00  0.00000000E+00
  0.00000000E+00  0.00000000E+00  0.00000000E+00
  0.00000000E+00  0.00000000E+00  0.00000000E+00
  0.00000000E+00  0.00000000E+00  0.00000000E+00
  0.00000000E+00  0.00000000E+00  0.00000000E+00
  0.00000000E+00  0.00000000E+00  0.00000000E+00
  0.00000000E+00  0.00000000E+00  0.00000000E+00
  0.00000000E+00  0.00000000E+00  0.00000000E+00
  0.00000000E+00  0.00000000E+00  0.00000000E+00
  0.00000000E+00  0.00000000E+00  0.00000000E+00
  0.00000000E+00  0.00000000E+00  0.00000000E+00
  0.00000000E+00  0.00000000E+00  0.00000000E+00
  0.00000000E+00  0.00000000E+00  0.00000000E+00
  0.00000000E+00  0.00000000E+00  0.00000000E+00
  0.00000000E+00  0.00000000E+00  0.00000000E+00
  0.00000000E+00  0.00000000E+00  0.00000000E+00
  0.00000000E+00  0.00000000E+00  0.00000000E+00
  0.00000000E+00  0.00000000E+00  0.00000000E+00
  0.00000000E+00  0.00000000E+00  0.00000000E+00
  0.00000000E+00  0.00000000E+00  0.00000000E+00
  0.00000000E+00  0.00000000E+00  0.00000000E+00
  0.00000000E+00  0.00000000E+00  0.00000000E+00
  0.00000000E+00  0.00000000E+00  0.00000000E+00
  0.00000000E+00  0.00000000E+00  0.00000000E+00
  0.00000000E+00  0.00000000E+00  0.00000000E+00
  0.00000000E+00  0.00000000E+00  0.00000000E+00
  0.00000000E+00  0.00000000E+00  0.00000000E+00
  0.00000000E+00  0.00000000E+00  0.00000000E+00
  0.00000000E+00  0.00000000E+00  0.00000000E+00
  0.00000000E+00  0.00000000E+00  0.00000000E+00
  0.00000000E+00  0.00000000E+00  0.00000000E+00
  0.00000000E+00  0.00000000E+00  0.00000000E+00
  0.00000000E+00  0.00000000E+00  0.00000000E+00
  0.00000000E+00  0.00000000E+00  0.00000000E+00
  0.00000000E+00  0.00000000E+00  0.00000000E+00
  0.00000000E+00  0.00000000E+00  0.00000000E+00
  0.00000000E+00  0.00000000E+00  0.00000000E+00
  0.00000000E+00  0.00000000E+00  0.00000000E+00
  0.00000000E+00  0.00000000E+00  0.00000000E+00
  0.00000000E+00  0.00000000E+00  0.00000000E+00
  0.00000000E+00  0.00000000E+00  0.00000000E+00
  0.00000000E+00  0.00000000E+00  0.00000000E+00
  0.00000000E+00  0.00000000E+00  0.00000000E+00
  0.00000000E+00  0.00000000E+00  0.00000000E+00
  0.00000000E+00  0.00000000E+00  0.00000000E+00
  0.00000000E+00  0.00000000E+00  0.00000000E+00
  0.00000000E+00  0.00000000E+00  0.00000000E+00
  0.00000000E+00  0.00000000E+00  0.00000000E+00
  0.00000000E+00  0.00000000E+00  0.00000000E+00
  0.00000000E+00  0.00000000E+00  0.00000000E+00
  0.00000000E+00  0.00000000E+00  0.00000000E+00
  0.00000000E+00  0.00000000E+00  0.00000000E+00
  0.00000000E+00  0.00000000E+00  0.00000000E+00
  0.00000000E+00  0.00000000E+00  0.00000000E+00
  0.00000000E+00  0.00000000E+00  0.00000000E+00
  0.00000000E+00  0.00000000E+00  0.00000000E+00
  0.00000000E+00  0.00000000E+00  0.00000000E+00
  0.00000000E+00  0.00000000E+00  0.00000000E+00
  0.00000000E+00  0.00000000E+00  0.00000000E+00
  0.00000000E+00  0.00000000E+00  0.00000000E+00
  0.00000000E+00  0.00000000E+00  0.00000000E+00
  0.00000000E+00  0.00000000E+00  0.00000000E+00
  0.00000000E+00  0.00000000E+00  0.00000000E+00
  0.00000000E+00  0.00000000E+00  0.00000000E+00
  0.00000000E+00  0.00000000E+00  0.00000000E+00
  0.00000000E+00  0.00000000E+00  0.00000000E+00
  0.00000000E+00  0.00000000E+00  0.00000000E+00
