Pt                                      
   1.00000000000000     
    11.2143591840627952    0.0000000000000000    0.0000000000000000
     5.6071786644696973    9.7119196343351284    0.0000000000000000
     0.0000000000000000    0.0000000000000000   31.4456079504766493
   Pt
    64
Selective dynamics
Direct
  0.0833333055905427  0.3333333411716950  0.3908056601795380   F   F   F
  0.0833333051675709  0.0833333421488334  0.3908056604662136   F   F   F
  0.3333333051810854  0.3333333439064887  0.3908056609450199   F   F   F
  0.3333333064933797  0.0833333407089185  0.3908056607145625   F   F   F
  0.4166666111986856  0.1666666831556824  0.4636018864526079   F   F   F
  0.4166666107757138  0.4166666841328208  0.4636018867392906   F   F   F
  0.1666666107892283  0.1666666858904762  0.4636018872180898   F   F   F
  0.1666666121015226  0.4166666826928989  0.4636018869876395   F   F   F
  0.2499978053718139  0.0000095613494424  0.5357374027152543   T   T   T
  0.2499989744199498  0.2499944312879958  0.5357370229505749   T   T   T
  0.5000032939789368  0.0000007289707908  0.5357290593549482   T   T   T
  0.5000095104267285  0.2499912567598210  0.5357467421430188   T   T   T
  0.0833054912315856  0.3333830661931916  0.6090094406175298   T   T   T
  0.0833047030980397  0.0833138482162313  0.6090093555515419   T   T   T
  0.3333315027263515  0.3333216594483185  0.6090160476459401   T   T   T
  0.3333866059384463  0.0833081774200430  0.6090135736706852   T   T   T
  0.0833333055905427  0.8333333411716950  0.3908056601795380   F   F   F
  0.0833333051675709  0.5833333421488334  0.3908056604662136   F   F   F
  0.3333333051810854  0.8333333439064887  0.3908056609450199   F   F   F
  0.3333333064933797  0.5833333407089185  0.3908056607145625   F   F   F
  0.4166666111986856  0.6666666831556824  0.4636018864526079   F   F   F
  0.4166666107757138  0.9166666841328208  0.4636018867392906   F   F   F
  0.1666666107892283  0.6666666858904762  0.4636018872180898   F   F   F
  0.1666666121015226  0.9166666826928989  0.4636018869876395   F   F   F
  0.2500095813393765  0.5000061428147885  0.5357452304051862   T   T   T
  0.2499941407385516  0.7499982249446636  0.5357483721300541   T   T   T
  0.5000017739010125  0.4999982494799967  0.5357359269592324   T   T   T
  0.4999954312873564  0.7499997590650532  0.5357406812892924   T   T   T
  0.0832961094651724  0.8333980279722907  0.6090194714327697   T   T   T
  0.0832970139310403  0.5833041712730390  0.6090194816168999   T   T   T
  0.3333317839637730  0.8333458613652184  0.6090158599841418   T   T   T
  0.3333861821546675  0.5833056580950994  0.6090205626851743   T   T   T
  0.5833333055905427  0.3333333411716950  0.3908056601795380   F   F   F
  0.5833333051675709  0.0833333421488334  0.3908056604662136   F   F   F
  0.8333333051810854  0.3333333439064887  0.3908056609450199   F   F   F
  0.8333333064933797  0.0833333407089185  0.3908056607145625   F   F   F
  0.9166666111986856  0.1666666831556824  0.4636018864526079   F   F   F
  0.9166666107757138  0.4166666841328208  0.4636018867392906   F   F   F
  0.6666666107892283  0.1666666858904762  0.4636018872180898   F   F   F
  0.6666666121015226  0.4166666826928989  0.4636018869876395   F   F   F
  0.7499946153813276  0.0000062970128161  0.5357456081261847   T   T   T
  0.7499968377573838  0.2499930612322925  0.5357414682252757   T   T   T
 -0.0000026408827933  0.0000010860732019  0.5357284315311258   T   T   T
  0.0000083273956111  0.2499961813875646  0.5357320466574406   T   T   T
  0.5833148586380531  0.3333766955438359  0.6090176350894662   T   T   T
  0.5833069281582257  0.0833000675596230  0.6090207075698347   T   T   T
  0.8333422729789386  0.3333284548879933  0.6090089971257585   T   T   T
  0.8333882443404896  0.0833057130688826  0.6090166933327624   T   T   T
  0.5833333055905427  0.8333333411716950  0.3908056601795380   F   F   F
  0.5833333051675709  0.5833333421488334  0.3908056604662136   F   F   F
  0.8333333051810854  0.8333333439064887  0.3908056609450199   F   F   F
  0.8333333064933797  0.5833333407089185  0.3908056607145625   F   F   F
  0.9166666111986856  0.6666666831556824  0.4636018864526079   F   F   F
  0.9166666107757138  0.9166666841328208  0.4636018867392906   F   F   F
  0.6666666107892283  0.6666666858904762  0.4636018872180898   F   F   F
  0.6666666121015226  0.9166666826928989  0.4636018869876395   F   F   F
  0.7499979072719476  0.5000089325267617  0.5357385803307714   T   T   T
  0.7499959879182045  0.7500004210330102  0.5357425348771180   T   T   T
 -0.0000007711416754  0.5000024607175592  0.5357252618002063   T   T   T
  0.0000025501689495  0.7499987240931999  0.5357472419930962   T   T   T
  0.5833079156510627  0.8333940321661661  0.6090206040071614   T   T   T
  0.5833158883756268  0.5833071234586180  0.6090174571703795   T   T   T
  0.8333260815331812  0.8333363323717150  0.6090220257564380   T   T   T
  0.8333900575579749  0.5833055326534486  0.6090165269460067   T   T   T
 
  0.00000000E+00  0.00000000E+00  0.00000000E+00
  0.00000000E+00  0.00000000E+00  0.00000000E+00
  0.00000000E+00  0.00000000E+00  0.00000000E+00
  0.00000000E+00  0.00000000E+00  0.00000000E+00
  0.00000000E+00  0.00000000E+00  0.00000000E+00
  0.00000000E+00  0.00000000E+00  0.00000000E+00
  0.00000000E+00  0.00000000E+00  0.00000000E+00
  0.00000000E+00  0.00000000E+00  0.00000000E+00
  0.00000000E+00  0.00000000E+00  0.00000000E+00
  0.00000000E+00  0.00000000E+00  0.00000000E+00
  0.00000000E+00  0.00000000E+00  0.00000000E+00
  0.00000000E+00  0.00000000E+00  0.00000000E+00
  0.00000000E+00  0.00000000E+00  0.00000000E+00
  0.00000000E+00  0.00000000E+00  0.00000000E+00
  0.00000000E+00  0.00000000E+00  0.00000000E+00
  0.00000000E+00  0.00000000E+00  0.00000000E+00
  0.00000000E+00  0.00000000E+00  0.00000000E+00
  0.00000000E+00  0.00000000E+00  0.00000000E+00
  0.00000000E+00  0.00000000E+00  0.00000000E+00
  0.00000000E+00  0.00000000E+00  0.00000000E+00
  0.00000000E+00  0.00000000E+00  0.00000000E+00
  0.00000000E+00  0.00000000E+00  0.00000000E+00
  0.00000000E+00  0.00000000E+00  0.00000000E+00
  0.00000000E+00  0.00000000E+00  0.00000000E+00
  0.00000000E+00  0.00000000E+00  0.00000000E+00
  0.00000000E+00  0.00000000E+00  0.00000000E+00
  0.00000000E+00  0.00000000E+00  0.00000000E+00
  0.00000000E+00  0.00000000E+00  0.00000000E+00
  0.00000000E+00  0.00000000E+00  0.00000000E+00
  0.00000000E+00  0.00000000E+00  0.00000000E+00
  0.00000000E+00  0.00000000E+00  0.00000000E+00
  0.00000000E+00  0.00000000E+00  0.00000000E+00
  0.00000000E+00  0.00000000E+00  0.00000000E+00
  0.00000000E+00  0.00000000E+00  0.00000000E+00
  0.00000000E+00  0.00000000E+00  0.00000000E+00
  0.00000000E+00  0.00000000E+00  0.00000000E+00
  0.00000000E+00  0.00000000E+00  0.00000000E+00
  0.00000000E+00  0.00000000E+00  0.00000000E+00
  0.00000000E+00  0.00000000E+00  0.00000000E+00
  0.00000000E+00  0.00000000E+00  0.00000000E+00
  0.00000000E+00  0.00000000E+00  0.00000000E+00
  0.00000000E+00  0.00000000E+00  0.00000000E+00
  0.00000000E+00  0.00000000E+00  0.00000000E+00
  0.00000000E+00  0.00000000E+00  0.00000000E+00
  0.00000000E+00  0.00000000E+00  0.00000000E+00
  0.00000000E+00  0.00000000E+00  0.00000000E+00
  0.00000000E+00  0.00000000E+00  0.00000000E+00
  0.00000000E+00  0.00000000E+00  0.00000000E+00
  0.00000000E+00  0.00000000E+00  0.00000000E+00
  0.00000000E+00  0.00000000E+00  0.00000000E+00
  0.00000000E+00  0.00000000E+00  0.00000000E+00
  0.00000000E+00  0.00000000E+00  0.00000000E+00
  0.00000000E+00  0.00000000E+00  0.00000000E+00
  0.00000000E+00  0.00000000E+00  0.00000000E+00
  0.00000000E+00  0.00000000E+00  0.00000000E+00
  0.00000000E+00  0.00000000E+00  0.00000000E+00
  0.00000000E+00  0.00000000E+00  0.00000000E+00
  0.00000000E+00  0.00000000E+00  0.00000000E+00
  0.00000000E+00  0.00000000E+00  0.00000000E+00
  0.00000000E+00  0.00000000E+00  0.00000000E+00
  0.00000000E+00  0.00000000E+00  0.00000000E+00
  0.00000000E+00  0.00000000E+00  0.00000000E+00
  0.00000000E+00  0.00000000E+00  0.00000000E+00
  0.00000000E+00  0.00000000E+00  0.00000000E+00
