Pt  O  C                                
   1.00000000000000     
    11.2143999999999995    0.0000000000000000    0.0000000000000000
     5.6072000000000006    9.7119552882002083    0.0000000000000000
     0.0000000000000000    0.0000000000000000   31.4455999999999989
   Pt   O    C 
    64     1     1
Selective dynamics
Direct
  0.0833299999999966  0.3333299999999966  0.3908100000000019   F   F   F
  0.0833299999999966  0.0833299999999966  0.3908100000000019   F   F   F
  0.3333299999999966  0.3333299999999966  0.3908100000000019   F   F   F
  0.3333299999999966  0.0833299999999966  0.3908100000000019   F   F   F
  0.4166700000000034  0.1666700000000034  0.4635999999999996   F   F   F
  0.4166700000000034  0.4166700000000034  0.4635999999999996   F   F   F
  0.1666700000000034  0.1666700000000034  0.4635999999999996   F   F   F
  0.1666700000000034  0.4166700000000034  0.4635999999999996   F   F   F
  0.2495192632820462  0.0005579969898619  0.5356883597839541   F   F   F
  0.2502699956605525  0.2500852224590062  0.5352925378992239   F   F   F
  0.4995667163891042  0.0009794125624012  0.5353581285728524   F   F   F
  0.5005657008509417  0.2522048334450844  0.5376451263294797   F   F   F
  0.0826097493691762  0.3338442934548596  0.6088928696526779   F   F   F
  0.0826069881135041  0.0845186848916910  0.6089319506310673   F   F   F
  0.3267230845232802  0.3347815404430392  0.6087448326555389   F   F   F
  0.3322414370811231  0.0842424574981635  0.6090050714487631   F   F   F
  0.0833299999999966  0.8333300000000037  0.3908100000000019   F   F   F
  0.0833299999999966  0.5833299999999966  0.3908100000000019   F   F   F
  0.3333299999999966  0.8333300000000037  0.3908100000000019   F   F   F
  0.3333300000000037  0.5833299999999966  0.3908100000000019   F   F   F
  0.4166700000000034  0.6666700000000034  0.4635999999999996   F   F   F
  0.4166700000000034  0.9166700000000034  0.4635999999999996   F   F   F
  0.1666700000000034  0.6666700000000034  0.4635999999999996   F   F   F
  0.1666700000000034  0.9166700000000034  0.4635999999999996   F   F   F
  0.2495871382038644  0.5003843087710820  0.5357100418072420   F   F   F
  0.2498055409421553  0.7504687565032953  0.5352457160823292   F   F   F
  0.5001632714371382  0.4990552176468128  0.5372348070339328   F   F   F
  0.4995557810505673  0.7501862197859523  0.5352884782850964   F   F   F
  0.0821864842089184  0.8352693609968114  0.6088757629047237   F   F   F
  0.0809242456333266  0.5853250027435806  0.6089302230639646   F   F   F
  0.3320630094819350  0.8351981111676494  0.6088727882531231   F   F   F
  0.3265107636448334  0.5901861223070171  0.6084788829600001   F   F   F
  0.5833300000000037  0.3333299999999966  0.3908100000000019   F   F   F
  0.5833299999999966  0.0833299999999966  0.3908100000000019   F   F   F
  0.8333299999999966  0.3333299999999966  0.3908100000000019   F   F   F
  0.8333299999999966  0.0833299999999966  0.3908100000000019   F   F   F
  0.9166700000000034  0.1666700000000034  0.4635999999999996   F   F   F
  0.9166699999999963  0.4166700000000034  0.4635999999999996   F   F   F
  0.6666700000000034  0.1666700000000034  0.4635999999999996   F   F   F
  0.6666700000000034  0.4166700000000034  0.4635999999999996   F   F   F
  0.7495548760204684  0.0005800831656444  0.5357388732698851   F   F   F
  0.7456506287693045  0.2525729652599864  0.5380846307496725   F   F   F
  0.9985828489314130  0.0015617355106272  0.5354360223439159   F   F   F
  0.9988040388498689  0.2503548122303982  0.5353496287238571   F   F   F
  0.5821979552451282  0.3351126994481461  0.6147572036875104   F   F   F
  0.5823566334247090  0.0801434730546688  0.6087454365531642   F   F   F
  0.8370658669003888  0.3347216755345315  0.6089916733639811   F   F   F
  0.8362134270615158  0.0803046401204455  0.6090638328960196   F   F   F
  0.5833299999999966  0.8333300000000037  0.3908100000000019   F   F   F
  0.5833300000000037  0.5833299999999966  0.3908100000000019   F   F   F
  0.8333299999999966  0.8333300000000037  0.3908100000000019   F   F   F
  0.8333299999999966  0.5833299999999966  0.3908100000000019   F   F   F
  0.9166699999999963  0.6666700000000034  0.4635999999999996   F   F   F
  0.9166700000000034  0.9166700000000034  0.4635999999999996   F   F   F
  0.6666699999999963  0.6666700000000034  0.4635999999999996   F   F   F
  0.6666700000000034  0.9166700000000034  0.4635999999999996   F   F   F
  0.7496131255262455  0.5003050968298126  0.5357671892926561   F   F   F
  0.7495502892764208  0.7504447041542903  0.5356753042246822   F   F   F
  0.9998930656716496  0.5000080623635412  0.5356681279650388   F   F   F
  0.9996436446981747  0.7505657104326247  0.5356382795820025   F   F   F
  0.5817755818295680  0.8348887577439754  0.6089056616550508   F   F   F
  0.5825651156596550  0.5896984957177622  0.6086263989480258   F   F   F
  0.8326011522573538  0.8339827914901363  0.6090074010100537   F   F   F
  0.8328594904785334  0.5851591891381673  0.6089550945287314   F   F   F
  0.5417748462015055  0.3774892268162091  0.7089784107084327   T   T   T
  0.5583382013688195  0.3595223459050487  0.6721478815902663   T   T   T
 
  0.00000000E+00  0.00000000E+00  0.00000000E+00
  0.00000000E+00  0.00000000E+00  0.00000000E+00
  0.00000000E+00  0.00000000E+00  0.00000000E+00
  0.00000000E+00  0.00000000E+00  0.00000000E+00
  0.00000000E+00  0.00000000E+00  0.00000000E+00
  0.00000000E+00  0.00000000E+00  0.00000000E+00
  0.00000000E+00  0.00000000E+00  0.00000000E+00
  0.00000000E+00  0.00000000E+00  0.00000000E+00
  0.00000000E+00  0.00000000E+00  0.00000000E+00
  0.00000000E+00  0.00000000E+00  0.00000000E+00
  0.00000000E+00  0.00000000E+00  0.00000000E+00
  0.00000000E+00  0.00000000E+00  0.00000000E+00
  0.00000000E+00  0.00000000E+00  0.00000000E+00
  0.00000000E+00  0.00000000E+00  0.00000000E+00
  0.00000000E+00  0.00000000E+00  0.00000000E+00
  0.00000000E+00  0.00000000E+00  0.00000000E+00
  0.00000000E+00  0.00000000E+00  0.00000000E+00
  0.00000000E+00  0.00000000E+00  0.00000000E+00
  0.00000000E+00  0.00000000E+00  0.00000000E+00
  0.00000000E+00  0.00000000E+00  0.00000000E+00
  0.00000000E+00  0.00000000E+00  0.00000000E+00
  0.00000000E+00  0.00000000E+00  0.00000000E+00
  0.00000000E+00  0.00000000E+00  0.00000000E+00
  0.00000000E+00  0.00000000E+00  0.00000000E+00
  0.00000000E+00  0.00000000E+00  0.00000000E+00
  0.00000000E+00  0.00000000E+00  0.00000000E+00
  0.00000000E+00  0.00000000E+00  0.00000000E+00
  0.00000000E+00  0.00000000E+00  0.00000000E+00
  0.00000000E+00  0.00000000E+00  0.00000000E+00
  0.00000000E+00  0.00000000E+00  0.00000000E+00
  0.00000000E+00  0.00000000E+00  0.00000000E+00
  0.00000000E+00  0.00000000E+00  0.00000000E+00
  0.00000000E+00  0.00000000E+00  0.00000000E+00
  0.00000000E+00  0.00000000E+00  0.00000000E+00
  0.00000000E+00  0.00000000E+00  0.00000000E+00
  0.00000000E+00  0.00000000E+00  0.00000000E+00
  0.00000000E+00  0.00000000E+00  0.00000000E+00
  0.00000000E+00  0.00000000E+00  0.00000000E+00
  0.00000000E+00  0.00000000E+00  0.00000000E+00
  0.00000000E+00  0.00000000E+00  0.00000000E+00
  0.00000000E+00  0.00000000E+00  0.00000000E+00
  0.00000000E+00  0.00000000E+00  0.00000000E+00
  0.00000000E+00  0.00000000E+00  0.00000000E+00
  0.00000000E+00  0.00000000E+00  0.00000000E+00
  0.00000000E+00  0.00000000E+00  0.00000000E+00
  0.00000000E+00  0.00000000E+00  0.00000000E+00
  0.00000000E+00  0.00000000E+00  0.00000000E+00
  0.00000000E+00  0.00000000E+00  0.00000000E+00
  0.00000000E+00  0.00000000E+00  0.00000000E+00
  0.00000000E+00  0.00000000E+00  0.00000000E+00
  0.00000000E+00  0.00000000E+00  0.00000000E+00
  0.00000000E+00  0.00000000E+00  0.00000000E+00
  0.00000000E+00  0.00000000E+00  0.00000000E+00
  0.00000000E+00  0.00000000E+00  0.00000000E+00
  0.00000000E+00  0.00000000E+00  0.00000000E+00
  0.00000000E+00  0.00000000E+00  0.00000000E+00
  0.00000000E+00  0.00000000E+00  0.00000000E+00
  0.00000000E+00  0.00000000E+00  0.00000000E+00
  0.00000000E+00  0.00000000E+00  0.00000000E+00
  0.00000000E+00  0.00000000E+00  0.00000000E+00
  0.00000000E+00  0.00000000E+00  0.00000000E+00
  0.00000000E+00  0.00000000E+00  0.00000000E+00
  0.00000000E+00  0.00000000E+00  0.00000000E+00
  0.00000000E+00  0.00000000E+00  0.00000000E+00
  0.00000000E+00  0.00000000E+00  0.00000000E+00
  0.00000000E+00  0.00000000E+00  0.00000000E+00
