&CONTROL
 calculation = 'relax',
 forc_conv_thr = 0.1,
 outdir = './output/'
 pseudo_dir = '/home/mini21k/QE/Potential'
 /
&SYSTEM
 ibrav = 0,
 nat = 48,
 ntyp = 1,
 ecutwfc = 30,
 ecutrho = 240,
 occupations = 'smearing',
 degauss = 0.003
 /
&ELECTRONS
 conv_thr = 1e-4,
 /
&IONS
 /
CELL_PARAMETERS angstrom
    11.4551298552220704    0.0000000000000000    0.0000000000000000
     5.7275649276110352    9.9204334582718694    0.0000000000000000
     0.0000000000000000    0.0000000000000000   14.6765371804359681
ATOMIC_SPECIES
Al 26.9815385 Al.pbe-n-kjpaw_psl.1.0.0.UPF
ATOMIC_POSITIONS angstrom
Al	1.431891231903	0.826702788189	0.000000000000	0 0 0
Al	4.295673695708	0.826702788189	0.000000000000	0 0 0
Al	7.159456159514	0.826702788189	0.000000000000	0 0 0
Al	10.023238623319	0.826702788189	0.000000000000	0 0 0
Al	2.863782463806	3.306811152757	0.000000000000	0 0 0
Al	5.727564927611	3.306811152757	0.000000000000	0 0 0
Al	8.591347391417	3.306811152757	0.000000000000	0 0 0
Al	11.455129855222	3.306811152757	0.000000000000	0 0 0
Al	4.295673695708	5.786919517325	0.000000000000	0 0 0
Al	7.159456159514	5.786919517325	0.000000000000	0 0 0
Al	10.023238623319	5.786919517325	0.000000000000	0 0 0
Al	12.887021087125	5.786919517325	0.000000000000	0 0 0
Al	5.727564927611	8.267027881893	0.000000000000	0 0 0
Al	8.591347391417	8.267027881893	0.000000000000	0 0 0
Al	11.455129855222	8.267027881893	0.000000000000	0 0 0
Al	14.318912319028	8.267027881893	0.000000000000	0 0 0
Al	0.000000000000	1.653405576379	2.338268590218	
Al	2.863782463806	1.653405576379	2.338268590218	
Al	5.727564927611	1.653405576379	2.338268590218	
Al	8.591347391417	1.653405576379	2.338268590218	
Al	1.431891231903	4.133513940947	2.338268590218	
Al	4.295673695708	4.133513940947	2.338268590218	
Al	7.159456159514	4.133513940947	2.338268590218	
Al	10.023238623319	4.133513940947	2.338268590218	
Al	2.863782463806	6.613622305515	2.338268590218	
Al	5.727564927611	6.613622305515	2.338268590218	
Al	8.591347391417	6.613622305515	2.338268590218	
Al	11.455129855222	6.613622305515	2.338268590218	
Al	4.295673695708	9.093730670083	2.338268590218	
Al	7.159456159514	9.093730670083	2.338268590218	
Al	10.023238623319	9.093730670083	2.338268590218	
Al	12.887021087125	9.093730670083	2.338268590218	
Al	0.000000000000	0.000000000000	4.676537180436	
Al	2.863782463806	0.000000000000	4.676537180436	
Al	5.727564927611	0.000000000000	4.676537180436	
Al	8.591347391417	0.000000000000	4.676537180436	
Al	1.431891231903	2.480108364568	4.676537180436	
Al	4.295673695708	2.480108364568	4.676537180436	
Al	7.159456159514	2.480108364568	4.676537180436	
Al	10.023238623319	2.480108364568	4.676537180436	
Al	2.863782463806	4.960216729136	4.676537180436	
Al	5.727564927611	4.960216729136	4.676537180436	
Al	8.591347391417	4.960216729136	4.676537180436	
Al	11.455129855222	4.960216729136	4.676537180436	
Al	4.295673695708	7.440325093704	4.676537180436	
Al	7.159456159514	7.440325093704	4.676537180436	
Al	10.023238623319	7.440325093704	4.676537180436	
Al	12.887021087125	7.440325093704	4.676537180436	
K_POINTS automatic
3 3 1 0 0 0

