Pt                                
   1.00000000000000     
    3.970000000000000000    0.0000000000000000    0.0000000000000000
     0.0000000000000000   3.9700000000000000    0.0000000000000000
     0.0000000000000000    0.0000000000000000   3.9700000000000000
   Pt 
   4
Selective dynamics
Direct
0.0 0.0 0.0 T T T
0.5 0.5 0.0 T T T
0.5 0.0 0.5 T T T
0.0 0.5 0.5 T T T

