&CONTROL
 calculation = 'relax',
 forc_conv_thr = 0.1,
 outdir = './output/'
 pseudo_dir = '/home/mini21k/QE/Potential'
 /
&SYSTEM
 ibrav = 0,
 nat = 27,
 ntyp = 1,
 ecutwfc = 30,
 ecutrho = 240,
 occupations = 'smearing',
 degauss = 0.003
 /
&ELECTRONS
 conv_thr = 1e-4,
 /
&IONS
 /
CELL_PARAMETERS angstrom
     8.5913473914165532    0.0000000000000000    0.0000000000000000
     4.2956736957082766    7.4403250937039020    0.0000000000000000
     0.0000000000000000    0.0000000000000000   14.6765371804359681
ATOMIC_SPECIES
Al 26.9815385 Al.pbe-n-kjpaw_psl.1.0.0.UPF
ATOMIC_POSITIONS angstrom
Al	1.43189123190275	0.82670278818932	0.000000000000	0 0 0
Al	4.29567369570827	0.82670278818932	0.000000000000	0 0 0
Al	7.15945615951379	0.82670278818932	0.000000000000	0 0 0
Al	2.86378246380551	3.30681115275728	0.000000000000	0 0 0
Al	5.72756492761103	3.30681115275728	0.000000000000	0 0 0
Al	8.59134739141655	3.30681115275728	0.000000000000	0 0 0
Al	4.29567369570827	5.78691951732525	0.000000000000	0 0 0
Al	7.15945615951379	5.78691951732525	0.000000000000	0 0 0
Al	10.0232386233193 5.78691951732525	0.000000000000	0 0 0
Al	0.00000000000000	1.65340557637864	2.338268590218	
Al	2.86378246380551	1.65340557637864	2.338268590218	
Al	5.72756492761103	1.65340557637864	2.338268590218	
Al	1.43189123190275	4.13351394094661	2.338268590218	
Al	4.29567369570827	4.13351394094661	2.338268590218	
Al	7.15945615951379	4.13351394094661	2.338268590218	
Al	2.86378246380551	6.61362230551457	2.338268590218	
Al	5.72756492761103	6.61362230551457	2.338268590218	
Al	8.59134739141655	6.61362230551457	2.338268590218	
Al	0.00000000000000	0.00000000000000	4.676537180436	
Al	2.86378246380551	0.00000000000000	4.676537180436	
Al	5.72756492761103	0.00000000000000	4.676537180436	
Al	1.43189123190275	2.48010836456796	4.676537180436	
Al	4.29567369570827	2.48010836456796	4.676537180436	
Al	7.15945615951379	2.48010836456796	4.676537180436	
Al	2.86378246380551	4.96021672913593	4.676537180436	
Al	5.72756492761103	4.96021672913593	4.676537180436	
Al	8.59134739141655	4.96021672913593	4.676537180436		
K_POINTS automatic
3 3 1 0 0 0

