&DOS
 prefix='cu3zn1'
 fildos='cu3zn1.dos.dat'
 emin=0.0
 emax=20.0
/
