&CONTROL
 calculation = 'bands',
 prefix = 'al',
 etot_conv_thr = 0.0001,
 forc_conv_thr = 0.001,
 pseudo_dir = '../pseudo'
/
&SYSTEM
 ibrav = 2,
 celldm(1) = 7.627339,
 nat = 1,
 ntyp = 1,
 occupations = 'smearing',
 smearing = 'gauss',
 degauss = 0.01,
 ecutwfc = 40,
 ecutrho = 320
 /
&ELECTRONS
  conv_thr= 1e-8
/
ATOMIC_SPECIES
  Al 26.981539 Al.pbe-n-kjpaw_psl.1.0.0.UPF

ATOMIC_POSITIONS (alat)
  Al 0.00 0.00 0.00

K_POINTS {crystal_b}
5
  00.000 0.500 00.000 80  !L
  00.000 0.000 00.000 120  !G
  -0.500 0.000 -0.500 40  !X
  -0.375 0.250 -0.375 120  !U
  00.000 0.000 00.000 80  !G
