&BANDS
  prefix = 'al'
  filband = 'bands.dat'
/
