&PROJWFC
  prefix= 'al',
  filpdos= 'pdos.dat'
/
